% ============================================================================
% CLP Test Case: 20_20 (variant: 20_20)
% ============================================================================
% Source: JITS2022 Test Battery (Converted)
% Original file: buses_input_20_20.json
% Converted to CLP format with JAVA-COMPATIBLE CONVENTION:
%   - Energy (D, Cmax, Cmin): distance-based units (meters-equivalent)
%   - alpha: converted from Java chargingRate -> units/second
%   - Time (T, tau_bi, mu, SM, psi, beta): seconds
%
% CONVERSION DETAILS:
% - tau_bi: minutes since 00:00 (no scaling)
% - T: travel times (in seconds)
% - D: direct Java-style distance units (distance_km * 1000)
% - Example: 07:00 -> 25200 seconds
%           1.25 km -> 1250 units
%
% INTERPRETATION GUIDE:
%   - Energy (D): Java-compatible distance units
%   - Time values are in seconds
% ============================================================================

% --- Problem Dimensions ---
num_buses = 6;
num_stations = 40;

% --- Energy Parameters (CLP Model) ---
% Java-compatible values (scaled by 1000: 1 unit = 0.001 kWh)
Cmax = 120000;  % 120.0 kWh scaled
Cmin = 15000;  % 15.0 kWh scaled
alpha = 167;  % 0.167 kWh/min scaled

% --- Time and Schedule Parameters ---
% NO SCALING - values are native minutes
mu = 240;      % Maximum delay in seconds (from dt_max=4 min)
SM = 60;      % Safety margin in seconds (from sm=1.0 min)
psi = 60;     % Minimum charging time in seconds (from min_ct=1 min)
beta = 486;   % Max charging time (scaled units in seconds)
M = 100000;   % Big-M constant (Java-style horizon)

% --- Route Structure ---
max_stops = 504;
num_stops = [504, 504, 378, 314, 84, 84];

% --- Station Sequence (st_bi) ---
% Maps each bus stop to a physical station ID (1-indexed)
st_bi = array2d(1..6, 1..504, [
  1,2,3,4,5,6,7,8,9,10,11,12,13,14,15,16,17,18,19,20,20,21,22,23,24,25,26,27,28,29,30,31,32,33,34,35,36,37,38,39,40,1,1,2,3,4,5,6,7,8,9,10,11,12,13,14,15,16,17,18,19,20,20,21,22,23,24,25,26,27,28,29,30,31,32,33,34,35,36,37,38,39,40,1,1,2,3,4,5,6,7,8,9,10,11,12,13,14,15,16,17,18,19,20,20,21,22,23,24,25,26,27,28,29,30,31,32,33,34,35,36,37,38,39,40,1,1,2,3,4,5,6,7,8,9,10,11,12,13,14,15,16,17,18,19,20,20,21,22,23,24,25,26,27,28,29,30,31,32,33,34,35,36,37,38,39,40,1,1,2,3,4,5,6,7,8,9,10,11,12,13,14,15,16,17,18,19,20,20,21,22,23,24,25,26,27,28,29,30,31,32,33,34,35,36,37,38,39,40,1,1,2,3,4,5,6,7,8,9,10,11,12,13,14,15,16,17,18,19,20,20,21,22,23,24,25,26,27,28,29,30,31,32,33,34,35,36,37,38,39,40,1,1,2,3,4,5,6,7,8,9,10,11,12,13,14,15,16,17,18,19,20,20,21,22,23,24,25,26,27,28,29,30,31,32,33,34,35,36,37,38,39,40,1,1,2,3,4,5,6,7,8,9,10,11,12,13,14,15,16,17,18,19,20,20,21,22,23,24,25,26,27,28,29,30,31,32,33,34,35,36,37,38,39,40,1,1,2,3,4,5,6,7,8,9,10,11,12,13,14,15,16,17,18,19,20,20,21,22,23,24,25,26,27,28,29,30,31,32,33,34,35,36,37,38,39,40,1,1,2,3,4,5,6,7,8,9,10,11,12,13,14,15,16,17,18,19,20,20,21,22,23,24,25,26,27,28,29,30,31,32,33,34,35,36,37,38,39,40,1,1,2,3,4,5,6,7,8,9,10,11,12,13,14,15,16,17,18,19,20,20,21,22,23,24,25,26,27,28,29,30,31,32,33,34,35,36,37,38,39,40,1,1,2,3,4,5,6,7,8,9,10,11,12,13,14,15,16,17,18,19,20,20,21,22,23,24,25,26,27,28,29,30,31,32,33,34,35,36,37,38,39,40,1,  % Bus 1
  20,21,22,23,24,25,26,27,28,29,30,31,32,33,34,35,36,37,38,39,40,1,1,2,3,4,5,6,7,8,9,10,11,12,13,14,15,16,17,18,19,20,20,21,22,23,24,25,26,27,28,29,30,31,32,33,34,35,36,37,38,39,40,1,1,2,3,4,5,6,7,8,9,10,11,12,13,14,15,16,17,18,19,20,20,21,22,23,24,25,26,27,28,29,30,31,32,33,34,35,36,37,38,39,40,1,1,2,3,4,5,6,7,8,9,10,11,12,13,14,15,16,17,18,19,20,20,21,22,23,24,25,26,27,28,29,30,31,32,33,34,35,36,37,38,39,40,1,1,2,3,4,5,6,7,8,9,10,11,12,13,14,15,16,17,18,19,20,20,21,22,23,24,25,26,27,28,29,30,31,32,33,34,35,36,37,38,39,40,1,1,2,3,4,5,6,7,8,9,10,11,12,13,14,15,16,17,18,19,20,20,21,22,23,24,25,26,27,28,29,30,31,32,33,34,35,36,37,38,39,40,1,1,2,3,4,5,6,7,8,9,10,11,12,13,14,15,16,17,18,19,20,20,21,22,23,24,25,26,27,28,29,30,31,32,33,34,35,36,37,38,39,40,1,1,2,3,4,5,6,7,8,9,10,11,12,13,14,15,16,17,18,19,20,20,21,22,23,24,25,26,27,28,29,30,31,32,33,34,35,36,37,38,39,40,1,1,2,3,4,5,6,7,8,9,10,11,12,13,14,15,16,17,18,19,20,20,21,22,23,24,25,26,27,28,29,30,31,32,33,34,35,36,37,38,39,40,1,1,2,3,4,5,6,7,8,9,10,11,12,13,14,15,16,17,18,19,20,20,21,22,23,24,25,26,27,28,29,30,31,32,33,34,35,36,37,38,39,40,1,1,2,3,4,5,6,7,8,9,10,11,12,13,14,15,16,17,18,19,20,20,21,22,23,24,25,26,27,28,29,30,31,32,33,34,35,36,37,38,39,40,1,1,2,3,4,5,6,7,8,9,10,11,12,13,14,15,16,17,18,19,20,20,21,22,23,24,25,26,27,28,29,30,31,32,33,34,35,36,37,38,39,40,1,1,2,3,4,5,6,7,8,9,10,11,12,13,14,15,16,17,18,19,20,  % Bus 2
  1,2,3,4,5,6,7,8,9,10,11,12,13,14,15,16,17,18,19,20,20,21,22,23,24,25,26,27,28,29,30,31,32,33,34,35,36,37,38,39,40,1,1,2,3,4,5,6,7,8,9,10,11,12,13,14,15,16,17,18,19,20,20,21,22,23,24,25,26,27,28,29,30,31,32,33,34,35,36,37,38,39,40,1,1,2,3,4,5,6,7,8,9,10,11,12,13,14,15,16,17,18,19,20,20,21,22,23,24,25,26,27,28,29,30,31,32,33,34,35,36,37,38,39,40,1,1,2,3,4,5,6,7,8,9,10,11,12,13,14,15,16,17,18,19,20,20,21,22,23,24,25,26,27,28,29,30,31,32,33,34,35,36,37,38,39,40,1,1,2,3,4,5,6,7,8,9,10,11,12,13,14,15,16,17,18,19,20,20,21,22,23,24,25,26,27,28,29,30,31,32,33,34,35,36,37,38,39,40,1,1,2,3,4,5,6,7,8,9,10,11,12,13,14,15,16,17,18,19,20,20,21,22,23,24,25,26,27,28,29,30,31,32,33,34,35,36,37,38,39,40,1,1,2,3,4,5,6,7,8,9,10,11,12,13,14,15,16,17,18,19,20,20,21,22,23,24,25,26,27,28,29,30,31,32,33,34,35,36,37,38,39,40,1,1,2,3,4,5,6,7,8,9,10,11,12,13,14,15,16,17,18,19,20,20,21,22,23,24,25,26,27,28,29,30,31,32,33,34,35,36,37,38,39,40,1,1,2,3,4,5,6,7,8,9,10,11,12,13,14,15,16,17,18,19,20,20,21,22,23,24,25,26,27,28,29,30,31,32,33,34,35,36,37,38,39,40,1,1,1,1,1,1,1,1,1,1,1,1,1,1,1,1,1,1,1,1,1,1,1,1,1,1,1,1,1,1,1,1,1,1,1,1,1,1,1,1,1,1,1,1,1,1,1,1,1,1,1,1,1,1,1,1,1,1,1,1,1,1,1,1,1,1,1,1,1,1,1,1,1,1,1,1,1,1,1,1,1,1,1,1,1,1,1,1,1,1,1,1,1,1,1,1,1,1,1,1,1,1,1,1,1,1,1,1,1,1,1,1,1,1,1,1,1,1,1,1,1,1,1,1,1,1,1,  % Bus 3
  1,2,3,4,5,6,7,8,9,10,11,12,13,14,15,16,17,18,19,20,20,21,22,23,24,25,26,27,28,29,30,31,32,33,34,35,36,37,38,39,40,1,1,2,3,4,5,6,7,8,9,10,11,12,13,14,15,16,17,18,19,20,20,21,22,23,24,25,26,27,28,29,30,31,32,33,34,35,36,37,38,39,40,1,1,2,3,4,5,6,7,8,9,10,11,12,13,14,15,16,17,18,19,20,20,21,22,23,24,25,26,27,28,29,30,31,32,33,34,35,36,37,38,39,40,1,1,2,3,4,5,6,7,8,9,10,11,12,13,14,15,16,17,18,19,20,20,21,22,23,24,25,26,27,28,29,30,31,32,33,34,35,36,37,38,39,40,1,1,2,3,4,5,6,7,8,9,10,11,12,13,14,15,16,17,18,19,20,20,21,22,23,24,25,26,27,28,29,30,31,32,33,34,35,36,37,38,39,40,1,1,2,3,4,5,6,7,8,9,10,11,12,13,14,15,16,17,18,19,20,20,21,22,23,24,25,26,27,28,29,30,31,32,33,34,35,36,37,38,39,40,1,1,2,3,4,5,6,7,8,9,10,11,12,13,14,15,16,17,18,19,20,20,21,22,23,24,25,26,27,28,29,30,31,32,33,34,35,36,37,38,39,40,1,1,2,3,4,5,6,7,8,9,10,11,12,13,14,15,16,17,18,19,20,20,20,20,20,20,20,20,20,20,20,20,20,20,20,20,20,20,20,20,20,20,20,20,20,20,20,20,20,20,20,20,20,20,20,20,20,20,20,20,20,20,20,20,20,20,20,20,20,20,20,20,20,20,20,20,20,20,20,20,20,20,20,20,20,20,20,20,20,20,20,20,20,20,20,20,20,20,20,20,20,20,20,20,20,20,20,20,20,20,20,20,20,20,20,20,20,20,20,20,20,20,20,20,20,20,20,20,20,20,20,20,20,20,20,20,20,20,20,20,20,20,20,20,20,20,20,20,20,20,20,20,20,20,20,20,20,20,20,20,20,20,20,20,20,20,20,20,20,20,20,20,20,20,20,20,20,20,20,20,20,20,20,20,20,20,20,20,20,20,20,20,20,20,20,20,20,20,20,20,20,20,20,20,20,20,20,20,20,20,20,  % Bus 4
  20,21,22,23,24,25,26,27,28,29,30,31,32,33,34,35,36,37,38,39,40,1,1,2,3,4,5,6,7,8,9,10,11,12,13,14,15,16,17,18,19,20,20,21,22,23,24,25,26,27,28,29,30,31,32,33,34,35,36,37,38,39,40,1,1,2,3,4,5,6,7,8,9,10,11,12,13,14,15,16,17,18,19,20,20,20,20,20,20,20,20,20,20,20,20,20,20,20,20,20,20,20,20,20,20,20,20,20,20,20,20,20,20,20,20,20,20,20,20,20,20,20,20,20,20,20,20,20,20,20,20,20,20,20,20,20,20,20,20,20,20,20,20,20,20,20,20,20,20,20,20,20,20,20,20,20,20,20,20,20,20,20,20,20,20,20,20,20,20,20,20,20,20,20,20,20,20,20,20,20,20,20,20,20,20,20,20,20,20,20,20,20,20,20,20,20,20,20,20,20,20,20,20,20,20,20,20,20,20,20,20,20,20,20,20,20,20,20,20,20,20,20,20,20,20,20,20,20,20,20,20,20,20,20,20,20,20,20,20,20,20,20,20,20,20,20,20,20,20,20,20,20,20,20,20,20,20,20,20,20,20,20,20,20,20,20,20,20,20,20,20,20,20,20,20,20,20,20,20,20,20,20,20,20,20,20,20,20,20,20,20,20,20,20,20,20,20,20,20,20,20,20,20,20,20,20,20,20,20,20,20,20,20,20,20,20,20,20,20,20,20,20,20,20,20,20,20,20,20,20,20,20,20,20,20,20,20,20,20,20,20,20,20,20,20,20,20,20,20,20,20,20,20,20,20,20,20,20,20,20,20,20,20,20,20,20,20,20,20,20,20,20,20,20,20,20,20,20,20,20,20,20,20,20,20,20,20,20,20,20,20,20,20,20,20,20,20,20,20,20,20,20,20,20,20,20,20,20,20,20,20,20,20,20,20,20,20,20,20,20,20,20,20,20,20,20,20,20,20,20,20,20,20,20,20,20,20,20,20,20,20,20,20,20,20,20,20,20,20,20,20,20,20,20,20,20,20,20,20,20,20,20,20,20,20,20,20,20,20,20,20,20,20,20,20,20,20,20,20,20,20,20,20,20,20,20,20,20,20,20,20,20,20,20,20,20,20,20,20,20,20,20,20,20,  % Bus 5
  1,2,3,4,5,6,7,8,9,10,11,12,13,14,15,16,17,18,19,20,20,21,22,23,24,25,26,27,28,29,30,31,32,33,34,35,36,37,38,39,40,1,1,2,3,4,5,6,7,8,9,10,11,12,13,14,15,16,17,18,19,20,20,21,22,23,24,25,26,27,28,29,30,31,32,33,34,35,36,37,38,39,40,1,1,1,1,1,1,1,1,1,1,1,1,1,1,1,1,1,1,1,1,1,1,1,1,1,1,1,1,1,1,1,1,1,1,1,1,1,1,1,1,1,1,1,1,1,1,1,1,1,1,1,1,1,1,1,1,1,1,1,1,1,1,1,1,1,1,1,1,1,1,1,1,1,1,1,1,1,1,1,1,1,1,1,1,1,1,1,1,1,1,1,1,1,1,1,1,1,1,1,1,1,1,1,1,1,1,1,1,1,1,1,1,1,1,1,1,1,1,1,1,1,1,1,1,1,1,1,1,1,1,1,1,1,1,1,1,1,1,1,1,1,1,1,1,1,1,1,1,1,1,1,1,1,1,1,1,1,1,1,1,1,1,1,1,1,1,1,1,1,1,1,1,1,1,1,1,1,1,1,1,1,1,1,1,1,1,1,1,1,1,1,1,1,1,1,1,1,1,1,1,1,1,1,1,1,1,1,1,1,1,1,1,1,1,1,1,1,1,1,1,1,1,1,1,1,1,1,1,1,1,1,1,1,1,1,1,1,1,1,1,1,1,1,1,1,1,1,1,1,1,1,1,1,1,1,1,1,1,1,1,1,1,1,1,1,1,1,1,1,1,1,1,1,1,1,1,1,1,1,1,1,1,1,1,1,1,1,1,1,1,1,1,1,1,1,1,1,1,1,1,1,1,1,1,1,1,1,1,1,1,1,1,1,1,1,1,1,1,1,1,1,1,1,1,1,1,1,1,1,1,1,1,1,1,1,1,1,1,1,1,1,1,1,1,1,1,1,1,1,1,1,1,1,1,1,1,1,1,1,1,1,1,1,1,1,1,1,1,1,1,1,1,1,1,1,1,1,1,1,1,1,1,1,1,1,1,1,1,1,1,1,1,1,1,1,1,1,1,1,1,1,1,1,1,1,1,1,1,1,1,1,1,1,1,1,1,1,1,1,1,1  % Bus 6
]);

% --- Energy Consumption (D) ---
% Java-compatible distance-based consumption units
% D[from,to] = int(distance_km * 1000)
D = array2d(1..6, 1..504, [
  0,264,278,245,220,354,208,393,277,234,400,328,271,428,260,284,326,319,881,328,0,201,279,890,534,307,285,254,496,185,320,413,253,193,194,260,256,322,164,362,270,326,0,264,278,245,220,354,208,393,277,234,400,328,271,428,260,284,326,319,881,328,0,201,279,890,534,307,285,254,496,185,320,413,253,193,194,260,256,322,164,362,270,326,0,264,278,245,220,354,208,393,277,234,400,328,271,428,260,284,326,319,881,328,0,201,279,890,534,307,285,254,496,185,320,413,253,193,194,260,256,322,164,362,270,326,0,264,278,245,220,354,208,393,277,234,400,328,271,428,260,284,326,319,881,328,0,201,279,890,534,307,285,254,496,185,320,413,253,193,194,260,256,322,164,362,270,326,0,264,278,245,220,354,208,393,277,234,400,328,271,428,260,284,326,319,881,328,0,201,279,890,534,307,285,254,496,185,320,413,253,193,194,260,256,322,164,362,270,326,0,264,278,245,220,354,208,393,277,234,400,328,271,428,260,284,326,319,881,328,0,201,279,890,534,307,285,254,496,185,320,413,253,193,194,260,256,322,164,362,270,326,0,264,278,245,220,354,208,393,277,234,400,328,271,428,260,284,326,319,881,328,0,201,279,890,534,307,285,254,496,185,320,413,253,193,194,260,256,322,164,362,270,326,0,264,278,245,220,354,208,393,277,234,400,328,271,428,260,284,326,319,881,328,0,201,279,890,534,307,285,254,496,185,320,413,253,193,194,260,256,322,164,362,270,326,0,264,278,245,220,354,208,393,277,234,400,328,271,428,260,284,326,319,881,328,0,201,279,890,534,307,285,254,496,185,320,413,253,193,194,260,256,322,164,362,270,326,0,264,278,245,220,354,208,393,277,234,400,328,271,428,260,284,326,319,881,328,0,201,279,890,534,307,285,254,496,185,320,413,253,193,194,260,256,322,164,362,270,326,0,264,278,245,220,354,208,393,277,234,400,328,271,428,260,284,326,319,881,328,0,201,279,890,534,307,285,254,496,185,320,413,253,193,194,260,256,322,164,362,270,326,0,264,278,245,220,354,208,393,277,234,400,328,271,428,260,284,326,319,881,328,0,201,279,890,534,307,285,254,496,185,320,413,253,193,194,260,256,322,164,362,270,326,  % Bus 1
  0,201,279,890,534,307,285,254,496,185,320,413,253,193,194,260,256,322,164,362,270,326,0,264,278,245,220,354,208,393,277,234,400,328,271,428,260,284,326,319,881,328,0,201,279,890,534,307,285,254,496,185,320,413,253,193,194,260,256,322,164,362,270,326,0,264,278,245,220,354,208,393,277,234,400,328,271,428,260,284,326,319,881,328,0,201,279,890,534,307,285,254,496,185,320,413,253,193,194,260,256,322,164,362,270,326,0,264,278,245,220,354,208,393,277,234,400,328,271,428,260,284,326,319,881,328,0,201,279,890,534,307,285,254,496,185,320,413,253,193,194,260,256,322,164,362,270,326,0,264,278,245,220,354,208,393,277,234,400,328,271,428,260,284,326,319,881,328,0,201,279,890,534,307,285,254,496,185,320,413,253,193,194,260,256,322,164,362,270,326,0,264,278,245,220,354,208,393,277,234,400,328,271,428,260,284,326,319,881,328,0,201,279,890,534,307,285,254,496,185,320,413,253,193,194,260,256,322,164,362,270,326,0,264,278,245,220,354,208,393,277,234,400,328,271,428,260,284,326,319,881,328,0,201,279,890,534,307,285,254,496,185,320,413,253,193,194,260,256,322,164,362,270,326,0,264,278,245,220,354,208,393,277,234,400,328,271,428,260,284,326,319,881,328,0,201,279,890,534,307,285,254,496,185,320,413,253,193,194,260,256,322,164,362,270,326,0,264,278,245,220,354,208,393,277,234,400,328,271,428,260,284,326,319,881,328,0,201,279,890,534,307,285,254,496,185,320,413,253,193,194,260,256,322,164,362,270,326,0,264,278,245,220,354,208,393,277,234,400,328,271,428,260,284,326,319,881,328,0,201,279,890,534,307,285,254,496,185,320,413,253,193,194,260,256,322,164,362,270,326,0,264,278,245,220,354,208,393,277,234,400,328,271,428,260,284,326,319,881,328,0,201,279,890,534,307,285,254,496,185,320,413,253,193,194,260,256,322,164,362,270,326,0,264,278,245,220,354,208,393,277,234,400,328,271,428,260,284,326,319,881,328,0,201,279,890,534,307,285,254,496,185,320,413,253,193,194,260,256,322,164,362,270,326,0,264,278,245,220,354,208,393,277,234,400,328,271,428,260,284,326,319,881,328,  % Bus 2
  0,264,278,245,220,354,208,393,277,234,400,328,271,428,260,284,326,319,881,328,0,201,279,890,534,307,285,254,496,185,320,413,253,193,194,260,256,322,164,362,270,326,0,264,278,245,220,354,208,393,277,234,400,328,271,428,260,284,326,319,881,328,0,201,279,890,534,307,285,254,496,185,320,413,253,193,194,260,256,322,164,362,270,326,0,264,278,245,220,354,208,393,277,234,400,328,271,428,260,284,326,319,881,328,0,201,279,890,534,307,285,254,496,185,320,413,253,193,194,260,256,322,164,362,270,326,0,264,278,245,220,354,208,393,277,234,400,328,271,428,260,284,326,319,881,328,0,201,279,890,534,307,285,254,496,185,320,413,253,193,194,260,256,322,164,362,270,326,0,264,278,245,220,354,208,393,277,234,400,328,271,428,260,284,326,319,881,328,0,201,279,890,534,307,285,254,496,185,320,413,253,193,194,260,256,322,164,362,270,326,0,264,278,245,220,354,208,393,277,234,400,328,271,428,260,284,326,319,881,328,0,201,279,890,534,307,285,254,496,185,320,413,253,193,194,260,256,322,164,362,270,326,0,264,278,245,220,354,208,393,277,234,400,328,271,428,260,284,326,319,881,328,0,201,279,890,534,307,285,254,496,185,320,413,253,193,194,260,256,322,164,362,270,326,0,264,278,245,220,354,208,393,277,234,400,328,271,428,260,284,326,319,881,328,0,201,279,890,534,307,285,254,496,185,320,413,253,193,194,260,256,322,164,362,270,326,0,264,278,245,220,354,208,393,277,234,400,328,271,428,260,284,326,319,881,328,0,201,279,890,534,307,285,254,496,185,320,413,253,193,194,260,256,322,164,362,270,326,0,0,0,0,0,0,0,0,0,0,0,0,0,0,0,0,0,0,0,0,0,0,0,0,0,0,0,0,0,0,0,0,0,0,0,0,0,0,0,0,0,0,0,0,0,0,0,0,0,0,0,0,0,0,0,0,0,0,0,0,0,0,0,0,0,0,0,0,0,0,0,0,0,0,0,0,0,0,0,0,0,0,0,0,0,0,0,0,0,0,0,0,0,0,0,0,0,0,0,0,0,0,0,0,0,0,0,0,0,0,0,0,0,0,0,0,0,0,0,0,0,0,0,0,0,0,  % Bus 3
  0,264,278,245,220,354,208,393,277,234,400,328,271,428,260,284,326,319,881,328,0,201,279,890,534,307,285,254,496,185,320,413,253,193,194,260,256,322,164,362,270,326,0,264,278,245,220,354,208,393,277,234,400,328,271,428,260,284,326,319,881,328,0,201,279,890,534,307,285,254,496,185,320,413,253,193,194,260,256,322,164,362,270,326,0,264,278,245,220,354,208,393,277,234,400,328,271,428,260,284,326,319,881,328,0,201,279,890,534,307,285,254,496,185,320,413,253,193,194,260,256,322,164,362,270,326,0,264,278,245,220,354,208,393,277,234,400,328,271,428,260,284,326,319,881,328,0,201,279,890,534,307,285,254,496,185,320,413,253,193,194,260,256,322,164,362,270,326,0,264,278,245,220,354,208,393,277,234,400,328,271,428,260,284,326,319,881,328,0,201,279,890,534,307,285,254,496,185,320,413,253,193,194,260,256,322,164,362,270,326,0,264,278,245,220,354,208,393,277,234,400,328,271,428,260,284,326,319,881,328,0,201,279,890,534,307,285,254,496,185,320,413,253,193,194,260,256,322,164,362,270,326,0,264,278,245,220,354,208,393,277,234,400,328,271,428,260,284,326,319,881,328,0,201,279,890,534,307,285,254,496,185,320,413,253,193,194,260,256,322,164,362,270,326,0,264,278,245,220,354,208,393,277,234,400,328,271,428,260,284,326,319,881,328,0,0,0,0,0,0,0,0,0,0,0,0,0,0,0,0,0,0,0,0,0,0,0,0,0,0,0,0,0,0,0,0,0,0,0,0,0,0,0,0,0,0,0,0,0,0,0,0,0,0,0,0,0,0,0,0,0,0,0,0,0,0,0,0,0,0,0,0,0,0,0,0,0,0,0,0,0,0,0,0,0,0,0,0,0,0,0,0,0,0,0,0,0,0,0,0,0,0,0,0,0,0,0,0,0,0,0,0,0,0,0,0,0,0,0,0,0,0,0,0,0,0,0,0,0,0,0,0,0,0,0,0,0,0,0,0,0,0,0,0,0,0,0,0,0,0,0,0,0,0,0,0,0,0,0,0,0,0,0,0,0,0,0,0,0,0,0,0,0,0,0,0,0,0,0,0,0,0,0,0,0,0,0,0,0,0,0,0,0,0,  % Bus 4
  0,201,279,890,534,307,285,254,496,185,320,413,253,193,194,260,256,322,164,362,270,326,0,264,278,245,220,354,208,393,277,234,400,328,271,428,260,284,326,319,881,328,0,201,279,890,534,307,285,254,496,185,320,413,253,193,194,260,256,322,164,362,270,326,0,264,278,245,220,354,208,393,277,234,400,328,271,428,260,284,326,319,881,328,0,0,0,0,0,0,0,0,0,0,0,0,0,0,0,0,0,0,0,0,0,0,0,0,0,0,0,0,0,0,0,0,0,0,0,0,0,0,0,0,0,0,0,0,0,0,0,0,0,0,0,0,0,0,0,0,0,0,0,0,0,0,0,0,0,0,0,0,0,0,0,0,0,0,0,0,0,0,0,0,0,0,0,0,0,0,0,0,0,0,0,0,0,0,0,0,0,0,0,0,0,0,0,0,0,0,0,0,0,0,0,0,0,0,0,0,0,0,0,0,0,0,0,0,0,0,0,0,0,0,0,0,0,0,0,0,0,0,0,0,0,0,0,0,0,0,0,0,0,0,0,0,0,0,0,0,0,0,0,0,0,0,0,0,0,0,0,0,0,0,0,0,0,0,0,0,0,0,0,0,0,0,0,0,0,0,0,0,0,0,0,0,0,0,0,0,0,0,0,0,0,0,0,0,0,0,0,0,0,0,0,0,0,0,0,0,0,0,0,0,0,0,0,0,0,0,0,0,0,0,0,0,0,0,0,0,0,0,0,0,0,0,0,0,0,0,0,0,0,0,0,0,0,0,0,0,0,0,0,0,0,0,0,0,0,0,0,0,0,0,0,0,0,0,0,0,0,0,0,0,0,0,0,0,0,0,0,0,0,0,0,0,0,0,0,0,0,0,0,0,0,0,0,0,0,0,0,0,0,0,0,0,0,0,0,0,0,0,0,0,0,0,0,0,0,0,0,0,0,0,0,0,0,0,0,0,0,0,0,0,0,0,0,0,0,0,0,0,0,0,0,0,0,0,0,0,0,0,0,0,0,0,0,0,0,0,0,0,0,0,0,0,0,0,0,0,0,0,0,0,0,0,0,0,0,0,0,0,0,0,0,0,0,0,0,0,0,0,0,0,0,0,0,0,0,0,0,0,0,0,0,0,0,0,0,0,0,0,0,0,  % Bus 5
  0,264,278,245,220,354,208,393,277,234,400,328,271,428,260,284,326,319,881,328,0,201,279,890,534,307,285,254,496,185,320,413,253,193,194,260,256,322,164,362,270,326,0,264,278,245,220,354,208,393,277,234,400,328,271,428,260,284,326,319,881,328,0,201,279,890,534,307,285,254,496,185,320,413,253,193,194,260,256,322,164,362,270,326,0,0,0,0,0,0,0,0,0,0,0,0,0,0,0,0,0,0,0,0,0,0,0,0,0,0,0,0,0,0,0,0,0,0,0,0,0,0,0,0,0,0,0,0,0,0,0,0,0,0,0,0,0,0,0,0,0,0,0,0,0,0,0,0,0,0,0,0,0,0,0,0,0,0,0,0,0,0,0,0,0,0,0,0,0,0,0,0,0,0,0,0,0,0,0,0,0,0,0,0,0,0,0,0,0,0,0,0,0,0,0,0,0,0,0,0,0,0,0,0,0,0,0,0,0,0,0,0,0,0,0,0,0,0,0,0,0,0,0,0,0,0,0,0,0,0,0,0,0,0,0,0,0,0,0,0,0,0,0,0,0,0,0,0,0,0,0,0,0,0,0,0,0,0,0,0,0,0,0,0,0,0,0,0,0,0,0,0,0,0,0,0,0,0,0,0,0,0,0,0,0,0,0,0,0,0,0,0,0,0,0,0,0,0,0,0,0,0,0,0,0,0,0,0,0,0,0,0,0,0,0,0,0,0,0,0,0,0,0,0,0,0,0,0,0,0,0,0,0,0,0,0,0,0,0,0,0,0,0,0,0,0,0,0,0,0,0,0,0,0,0,0,0,0,0,0,0,0,0,0,0,0,0,0,0,0,0,0,0,0,0,0,0,0,0,0,0,0,0,0,0,0,0,0,0,0,0,0,0,0,0,0,0,0,0,0,0,0,0,0,0,0,0,0,0,0,0,0,0,0,0,0,0,0,0,0,0,0,0,0,0,0,0,0,0,0,0,0,0,0,0,0,0,0,0,0,0,0,0,0,0,0,0,0,0,0,0,0,0,0,0,0,0,0,0,0,0,0,0,0,0,0,0,0,0,0,0,0,0,0,0,0,0,0,0,0,0,0,0,0,0,0,0,0,0,0,0,0,0,0,0,0,0,0,0,0,0,0,0,0  % Bus 6
]);

% --- Travel Time (T) ---
% Time between stops in INTEGER seconds (no scaling)
% Values are written directly in seconds
% Calculated using JITS2022 algorithm: T from schedule deltas
T = array2d(1..6, 1..504, [
  0,60,60,60,60,60,60,60,60,60,60,60,60,60,60,60,60,60,120,60,0,60,60,120,120,60,60,60,60,60,60,60,60,60,60,60,60,60,0,60,60,60,0,60,60,60,60,60,60,60,60,60,60,60,60,60,60,60,60,60,120,60,0,60,60,120,120,60,60,60,60,60,60,60,60,60,60,60,60,60,0,60,60,60,0,60,60,60,60,60,60,60,60,60,60,60,60,60,60,60,60,60,120,60,600,60,60,120,120,60,60,60,60,60,60,60,60,60,60,60,60,60,0,60,60,60,0,60,60,60,60,60,60,60,60,60,60,60,60,60,60,60,60,60,120,60,0,60,60,120,120,60,60,60,60,60,60,60,60,60,60,60,60,60,0,60,60,60,0,60,60,60,60,60,60,60,60,60,60,60,60,60,60,60,60,60,120,60,600,60,60,120,120,60,60,60,60,60,60,60,60,60,60,60,60,60,0,60,60,60,0,60,60,60,60,60,60,60,60,60,60,60,60,60,60,60,60,60,120,60,0,60,60,120,120,60,60,60,60,60,60,60,60,60,60,60,60,60,0,60,60,60,0,60,60,60,60,60,60,60,60,60,60,60,60,60,60,60,60,60,120,60,600,60,60,120,120,60,60,60,60,60,60,60,60,60,60,60,60,60,0,60,60,60,0,60,60,60,60,60,60,60,60,60,60,60,60,60,60,60,60,60,120,60,0,60,60,120,120,60,60,60,60,60,60,60,60,60,60,60,60,60,0,60,60,60,0,60,60,60,60,60,60,60,60,60,60,60,60,60,60,60,60,60,60,60,600,60,60,60,60,60,60,60,60,60,60,60,60,60,60,60,60,60,0,60,60,60,0,60,60,60,60,60,60,60,60,60,60,60,60,60,60,60,60,60,60,60,0,60,60,60,60,60,60,60,60,60,60,60,60,60,60,60,60,60,0,60,60,60,0,60,60,60,60,60,60,60,60,60,60,60,60,60,60,60,60,60,60,60,600,60,60,60,60,60,60,60,60,60,60,60,60,60,60,60,60,60,0,60,60,60,0,60,60,60,60,60,60,60,60,60,60,60,60,60,60,60,60,60,60,60,0,60,60,60,60,60,60,60,60,60,60,60,60,60,60,60,60,60,0,60,60,60,  % Bus 1
  0,60,60,60,60,60,60,60,60,60,60,60,60,60,60,60,60,60,0,60,60,60,0,60,60,60,60,60,60,60,60,60,60,60,60,60,60,60,60,60,120,60,0,60,60,120,120,60,60,60,60,60,60,60,60,60,60,60,60,60,0,60,60,60,0,60,60,60,60,60,60,60,60,60,60,60,60,60,60,60,60,60,120,60,0,60,60,120,120,60,60,60,60,60,60,60,60,60,60,60,60,60,0,60,60,60,600,60,60,60,60,60,60,60,60,60,60,60,60,60,60,60,60,60,120,60,0,60,60,120,120,60,60,60,60,60,60,60,60,60,60,60,60,60,0,60,60,60,0,60,60,60,60,60,60,60,60,60,60,60,60,60,60,60,60,60,120,60,0,60,60,120,120,60,60,60,60,60,60,60,60,60,60,60,60,60,0,60,60,60,600,60,60,60,60,60,60,60,60,60,60,60,60,60,60,60,60,60,120,60,0,60,60,120,120,60,60,60,60,60,60,60,60,60,60,60,60,60,0,60,60,60,0,60,60,60,60,60,60,60,60,60,60,60,60,60,60,60,60,60,120,60,0,60,60,120,120,60,60,60,60,60,60,60,60,60,60,60,60,60,0,60,60,60,600,60,60,60,60,60,60,60,60,60,60,60,60,60,60,60,60,60,120,60,0,60,60,120,120,60,60,60,60,60,60,60,60,60,60,60,60,60,0,60,60,60,0,60,60,60,60,60,60,60,60,60,60,60,60,60,60,60,60,60,120,60,0,60,60,60,60,60,60,60,60,60,60,60,60,60,60,60,60,60,0,60,60,60,600,60,60,60,60,60,60,60,60,60,60,60,60,60,60,60,60,60,60,60,0,60,60,60,60,60,60,60,60,60,60,60,60,60,60,60,60,60,0,60,60,60,0,60,60,60,60,60,60,60,60,60,60,60,60,60,60,60,60,60,60,60,0,60,60,60,60,60,60,60,60,60,60,60,60,60,60,60,60,60,0,60,60,60,600,60,60,60,60,60,60,60,60,60,60,60,60,60,60,60,60,60,60,60,0,60,60,60,60,60,60,60,60,60,60,60,60,60,60,60,60,60,0,60,60,60,0,60,60,60,60,60,60,60,60,60,60,60,60,60,60,60,60,60,60,60,  % Bus 2
  0,60,60,60,60,60,60,60,60,60,60,60,60,60,60,60,60,60,120,60,0,60,60,120,120,60,60,60,60,60,60,60,60,60,60,60,60,60,0,60,60,60,0,60,60,60,60,60,60,60,60,60,60,60,60,60,60,60,60,60,120,60,0,60,60,120,120,60,60,60,60,60,60,60,60,60,60,60,60,60,0,60,60,60,0,60,60,60,60,60,60,60,60,60,60,60,60,60,60,60,60,60,120,60,600,60,60,120,120,60,60,60,60,60,60,60,60,60,60,60,60,60,0,60,60,60,0,60,60,60,60,60,60,60,60,60,60,60,60,60,60,60,60,60,120,60,0,60,60,120,120,60,60,60,60,60,60,60,60,60,60,60,60,60,0,60,60,60,0,60,60,60,60,60,60,60,60,60,60,60,60,60,60,60,60,60,120,60,600,60,60,120,120,60,60,60,60,60,60,60,60,60,60,60,60,60,0,60,60,60,0,60,60,60,60,60,60,60,60,60,60,60,60,60,60,60,60,60,120,60,0,60,60,120,120,60,60,60,60,60,60,60,60,60,60,60,60,60,0,60,60,60,0,60,60,60,60,60,60,60,60,60,60,60,60,60,60,60,60,60,120,60,600,60,60,120,120,60,60,60,60,60,60,60,60,60,60,60,60,60,0,60,60,60,0,60,60,60,60,60,60,60,60,60,60,60,60,60,60,60,60,60,120,60,0,60,60,60,60,60,60,60,60,60,60,60,60,60,60,60,60,60,0,60,60,60,0,60,60,60,60,60,60,60,60,60,60,60,60,60,60,60,60,60,60,60,600,60,60,60,60,60,60,60,60,60,60,60,60,60,60,60,60,60,0,60,60,60,0,0,0,0,0,0,0,0,0,0,0,0,0,0,0,0,0,0,0,0,0,0,0,0,0,0,0,0,0,0,0,0,0,0,0,0,0,0,0,0,0,0,0,0,0,0,0,0,0,0,0,0,0,0,0,0,0,0,0,0,0,0,0,0,0,0,0,0,0,0,0,0,0,0,0,0,0,0,0,0,0,0,0,0,0,0,0,0,0,0,0,0,0,0,0,0,0,0,0,0,0,0,0,0,0,0,0,0,0,0,0,0,0,0,0,0,0,0,0,0,0,0,0,0,0,0,  % Bus 3
  0,60,60,60,60,60,60,60,60,60,60,60,60,60,60,60,60,60,120,60,0,60,60,120,120,60,60,60,60,60,60,60,60,60,60,60,60,60,0,60,60,60,0,60,60,60,60,60,60,60,60,60,60,60,60,60,60,60,60,60,120,60,0,60,60,120,120,60,60,60,60,60,60,60,60,60,60,60,60,60,0,60,60,60,0,60,60,60,60,60,60,60,60,60,60,60,60,60,60,60,60,60,120,60,600,60,60,120,120,60,60,60,60,60,60,60,60,60,60,60,60,60,0,60,60,60,0,60,60,60,60,60,60,60,60,60,60,60,60,60,60,60,60,60,120,60,0,60,60,120,120,60,60,60,60,60,60,60,60,60,60,60,60,60,0,60,60,60,0,60,60,60,60,60,60,60,60,60,60,60,60,60,60,60,60,60,120,60,600,60,60,120,120,60,60,60,60,60,60,60,60,60,60,60,60,60,0,60,60,60,0,60,60,60,60,60,60,60,60,60,60,60,60,60,60,60,60,60,120,60,0,60,60,120,120,60,60,60,60,60,60,60,60,60,60,60,60,60,0,60,60,60,0,60,60,60,60,60,60,60,60,60,60,60,60,60,60,60,60,60,60,60,600,60,60,60,60,60,60,60,60,60,60,60,60,60,60,60,60,60,0,60,60,60,0,60,60,60,60,60,60,60,60,60,60,60,60,60,60,60,60,60,60,60,0,0,0,0,0,0,0,0,0,0,0,0,0,0,0,0,0,0,0,0,0,0,0,0,0,0,0,0,0,0,0,0,0,0,0,0,0,0,0,0,0,0,0,0,0,0,0,0,0,0,0,0,0,0,0,0,0,0,0,0,0,0,0,0,0,0,0,0,0,0,0,0,0,0,0,0,0,0,0,0,0,0,0,0,0,0,0,0,0,0,0,0,0,0,0,0,0,0,0,0,0,0,0,0,0,0,0,0,0,0,0,0,0,0,0,0,0,0,0,0,0,0,0,0,0,0,0,0,0,0,0,0,0,0,0,0,0,0,0,0,0,0,0,0,0,0,0,0,0,0,0,0,0,0,0,0,0,0,0,0,0,0,0,0,0,0,0,0,0,0,0,0,0,0,0,0,0,0,0,0,0,0,0,0,0,0,0,0,0,0,  % Bus 4
  0,60,60,120,120,60,60,60,60,60,60,60,60,60,60,60,60,60,0,60,60,60,0,60,60,60,60,60,60,60,60,60,60,60,60,60,60,60,60,60,120,60,0,60,60,120,120,60,60,60,60,60,60,60,60,60,60,60,60,60,0,60,60,60,0,60,60,60,60,60,60,60,60,60,60,60,60,60,60,60,60,60,120,60,0,0,0,0,0,0,0,0,0,0,0,0,0,0,0,0,0,0,0,0,0,0,0,0,0,0,0,0,0,0,0,0,0,0,0,0,0,0,0,0,0,0,0,0,0,0,0,0,0,0,0,0,0,0,0,0,0,0,0,0,0,0,0,0,0,0,0,0,0,0,0,0,0,0,0,0,0,0,0,0,0,0,0,0,0,0,0,0,0,0,0,0,0,0,0,0,0,0,0,0,0,0,0,0,0,0,0,0,0,0,0,0,0,0,0,0,0,0,0,0,0,0,0,0,0,0,0,0,0,0,0,0,0,0,0,0,0,0,0,0,0,0,0,0,0,0,0,0,0,0,0,0,0,0,0,0,0,0,0,0,0,0,0,0,0,0,0,0,0,0,0,0,0,0,0,0,0,0,0,0,0,0,0,0,0,0,0,0,0,0,0,0,0,0,0,0,0,0,0,0,0,0,0,0,0,0,0,0,0,0,0,0,0,0,0,0,0,0,0,0,0,0,0,0,0,0,0,0,0,0,0,0,0,0,0,0,0,0,0,0,0,0,0,0,0,0,0,0,0,0,0,0,0,0,0,0,0,0,0,0,0,0,0,0,0,0,0,0,0,0,0,0,0,0,0,0,0,0,0,0,0,0,0,0,0,0,0,0,0,0,0,0,0,0,0,0,0,0,0,0,0,0,0,0,0,0,0,0,0,0,0,0,0,0,0,0,0,0,0,0,0,0,0,0,0,0,0,0,0,0,0,0,0,0,0,0,0,0,0,0,0,0,0,0,0,0,0,0,0,0,0,0,0,0,0,0,0,0,0,0,0,0,0,0,0,0,0,0,0,0,0,0,0,0,0,0,0,0,0,0,0,0,0,0,0,0,0,0,0,0,0,0,0,0,0,0,0,0,0,0,0,0,0,0,0,0,0,0,0,0,0,0,0,0,0,0,0,0,0,0,  % Bus 5
  0,60,60,60,60,60,60,60,60,60,60,60,60,60,60,60,60,60,120,60,0,60,60,120,120,60,60,60,60,60,60,60,60,60,60,60,60,60,0,60,60,60,0,60,60,60,60,60,60,60,60,60,60,60,60,60,60,60,60,60,120,60,0,60,60,120,120,60,60,60,60,60,60,60,60,60,60,60,60,60,0,60,60,60,0,0,0,0,0,0,0,0,0,0,0,0,0,0,0,0,0,0,0,0,0,0,0,0,0,0,0,0,0,0,0,0,0,0,0,0,0,0,0,0,0,0,0,0,0,0,0,0,0,0,0,0,0,0,0,0,0,0,0,0,0,0,0,0,0,0,0,0,0,0,0,0,0,0,0,0,0,0,0,0,0,0,0,0,0,0,0,0,0,0,0,0,0,0,0,0,0,0,0,0,0,0,0,0,0,0,0,0,0,0,0,0,0,0,0,0,0,0,0,0,0,0,0,0,0,0,0,0,0,0,0,0,0,0,0,0,0,0,0,0,0,0,0,0,0,0,0,0,0,0,0,0,0,0,0,0,0,0,0,0,0,0,0,0,0,0,0,0,0,0,0,0,0,0,0,0,0,0,0,0,0,0,0,0,0,0,0,0,0,0,0,0,0,0,0,0,0,0,0,0,0,0,0,0,0,0,0,0,0,0,0,0,0,0,0,0,0,0,0,0,0,0,0,0,0,0,0,0,0,0,0,0,0,0,0,0,0,0,0,0,0,0,0,0,0,0,0,0,0,0,0,0,0,0,0,0,0,0,0,0,0,0,0,0,0,0,0,0,0,0,0,0,0,0,0,0,0,0,0,0,0,0,0,0,0,0,0,0,0,0,0,0,0,0,0,0,0,0,0,0,0,0,0,0,0,0,0,0,0,0,0,0,0,0,0,0,0,0,0,0,0,0,0,0,0,0,0,0,0,0,0,0,0,0,0,0,0,0,0,0,0,0,0,0,0,0,0,0,0,0,0,0,0,0,0,0,0,0,0,0,0,0,0,0,0,0,0,0,0,0,0,0,0,0,0,0,0,0,0,0,0,0,0,0,0,0,0,0,0,0,0,0,0,0,0,0,0,0,0,0,0,0,0,0,0,0,0,0,0,0,0,0,0,0,0,0,0,0,0,0  % Bus 6
]);

% --- Original Timetable (tau_bi) ---
% Scheduled arrival times in MINUTES since 00:00 (no scaling)
% Consistent with MiniZinc tbi variable (0..3000 range)
tau_bi = array2d(1..6, 1..504, [
  25200,25440,25560,25680,25800,25920,26040,26160,26280,26400,26520,26640,26760,26880,27000,27120,27240,27360,27480,27600,27600,27660,27720,27840,27960,28080,28200,28320,28440,28560,28680,28800,28920,28980,29040,29100,29220,29340,29460,29580,29700,30000,30000,30240,30360,30480,30600,30720,30840,30960,31080,31200,31320,31440,31560,31680,31800,31920,32040,32160,32280,32400,32400,32460,32520,32640,32760,32880,33000,33120,33240,33360,33480,33600,33720,33780,33840,33900,34020,34140,34260,34380,34500,34800,34800,35040,35160,35280,35400,35520,35640,35760,35880,36000,36120,36240,36360,36480,36600,36720,36840,36960,37080,37200,38400,38460,38520,38640,38760,38880,39000,39120,39240,39360,39480,39600,39720,39780,39840,39900,40020,40140,40260,40380,40500,40800,40800,41040,41160,41280,41400,41520,41640,41760,41880,42000,42120,42240,42360,42480,42600,42720,42840,42960,43080,43200,43200,43260,43320,43440,43560,43680,43800,43920,44040,44160,44280,44400,44520,44580,44640,44700,44820,44940,45060,45180,45300,45600,45600,45840,45960,46080,46200,46320,46440,46560,46680,46800,46920,47040,47160,47280,47400,47520,47640,47760,47880,48000,49200,49260,49320,49440,49560,49680,49800,49920,50040,50160,50280,50400,50520,50580,50640,50700,50820,50940,51060,51180,51300,51600,51600,51840,51960,52080,52200,52320,52440,52560,52680,52800,52920,53040,53160,53280,53400,53520,53640,53760,53880,54000,54000,54060,54120,54240,54360,54480,54600,54720,54840,54960,55080,55200,55320,55380,55440,55500,55620,55740,55860,55980,56100,56400,56400,56640,56760,56880,57000,57120,57240,57360,57480,57600,57720,57840,57960,58080,58200,58320,58440,58560,58680,58800,60000,60060,60120,60240,60360,60480,60600,60720,60840,60960,61080,61200,61320,61380,61440,61500,61620,61740,61860,61980,62100,62400,62400,62640,62760,62880,63000,63120,63240,63360,63480,63600,63720,63840,63960,64080,64200,64320,64440,64560,64680,64800,64800,64860,64920,65040,65160,65280,65400,65520,65640,65760,65880,66000,66120,66180,66240,66300,66420,66540,66660,66780,66900,67200,67200,67320,67440,67560,67680,67800,67920,68040,68160,68280,68400,68460,68520,68580,68640,68700,68760,68820,68880,69000,70800,70860,70920,70980,71040,71100,71160,71220,71280,71340,71400,71460,71520,71580,71640,71700,71820,71940,72060,72180,72300,72600,72600,72720,72840,72960,73080,73200,73320,73440,73560,73680,73800,73860,73920,73980,74040,74100,74160,74220,74280,74400,74400,74460,74520,74580,74640,74700,74760,74820,74880,74940,75000,75060,75120,75180,75240,75300,75420,75540,75660,75780,75900,76200,76200,76320,76440,76560,76680,76800,76920,77040,77160,77280,77400,77460,77520,77580,77640,77700,77760,77820,77880,78000,79800,79860,79920,79980,80040,80100,80160,80220,80280,80340,80400,80460,80520,80580,80640,80700,80820,80940,81060,81180,81300,81600,81600,81720,81840,81960,82080,82200,82320,82440,82560,82680,82800,82860,82920,82980,83040,83100,83160,83220,83280,83400,83400,83460,83520,83580,83640,83700,83760,83820,83880,83940,84000,84060,84120,84180,84240,84300,84420,84540,84660,84780,84900,85200,  % Bus 1
  25800,25860,25920,25980,26040,26100,26160,26220,26280,26340,26400,26460,26520,26580,26640,26700,26820,26940,27060,27180,27300,27600,27600,27840,27960,28080,28200,28320,28440,28560,28680,28800,28920,29040,29160,29280,29400,29520,29640,29760,29880,30000,30000,30060,30120,30240,30360,30480,30600,30720,30840,30960,31080,31200,31320,31380,31440,31500,31620,31740,31860,31980,32100,32400,32400,32640,32760,32880,33000,33120,33240,33360,33480,33600,33720,33840,33960,34080,34200,34320,34440,34560,34680,34800,34800,34860,34920,35040,35160,35280,35400,35520,35640,35760,35880,36000,36120,36180,36240,36300,36420,36540,36660,36780,36900,37200,38400,38640,38760,38880,39000,39120,39240,39360,39480,39600,39720,39840,39960,40080,40200,40320,40440,40560,40680,40800,40800,40860,40920,41040,41160,41280,41400,41520,41640,41760,41880,42000,42120,42180,42240,42300,42420,42540,42660,42780,42900,43200,43200,43440,43560,43680,43800,43920,44040,44160,44280,44400,44520,44640,44760,44880,45000,45120,45240,45360,45480,45600,45600,45660,45720,45840,45960,46080,46200,46320,46440,46560,46680,46800,46920,46980,47040,47100,47220,47340,47460,47580,47700,48000,49200,49440,49560,49680,49800,49920,50040,50160,50280,50400,50520,50640,50760,50880,51000,51120,51240,51360,51480,51600,51600,51660,51720,51840,51960,52080,52200,52320,52440,52560,52680,52800,52920,52980,53040,53100,53220,53340,53460,53580,53700,54000,54000,54240,54360,54480,54600,54720,54840,54960,55080,55200,55320,55440,55560,55680,55800,55920,56040,56160,56280,56400,56400,56460,56520,56640,56760,56880,57000,57120,57240,57360,57480,57600,57720,57780,57840,57900,58020,58140,58260,58380,58500,58800,60000,60240,60360,60480,60600,60720,60840,60960,61080,61200,61320,61440,61560,61680,61800,61920,62040,62160,62280,62400,62400,62460,62520,62640,62760,62880,63000,63120,63240,63360,63480,63600,63720,63780,63840,63900,64020,64140,64260,64380,64500,64800,64800,65040,65160,65280,65400,65520,65640,65760,65880,66000,66120,66240,66360,66480,66600,66720,66840,66960,67080,67200,67200,67260,67320,67380,67440,67500,67560,67620,67680,67740,67800,67860,67920,67980,68040,68100,68220,68340,68460,68580,68700,69000,70800,70920,71040,71160,71280,71400,71520,71640,71760,71880,72000,72060,72120,72180,72240,72300,72360,72420,72480,72600,72600,72660,72720,72780,72840,72900,72960,73020,73080,73140,73200,73260,73320,73380,73440,73500,73620,73740,73860,73980,74100,74400,74400,74520,74640,74760,74880,75000,75120,75240,75360,75480,75600,75660,75720,75780,75840,75900,75960,76020,76080,76200,76200,76260,76320,76380,76440,76500,76560,76620,76680,76740,76800,76860,76920,76980,77040,77100,77220,77340,77460,77580,77700,78000,79800,79920,80040,80160,80280,80400,80520,80640,80760,80880,81000,81060,81120,81180,81240,81300,81360,81420,81480,81600,81600,81660,81720,81780,81840,81900,81960,82020,82080,82140,82200,82260,82320,82380,82440,82500,82620,82740,82860,82980,83100,83400,83400,83520,83640,83760,83880,84000,84120,84240,84360,84480,84600,84660,84720,84780,84840,84900,84960,85020,85080,85200,  % Bus 2
  26400,26640,26760,26880,27000,27120,27240,27360,27480,27600,27720,27840,27960,28080,28200,28320,28440,28560,28680,28800,28800,28860,28920,29040,29160,29280,29400,29520,29640,29760,29880,30000,30120,30180,30240,30300,30420,30540,30660,30780,30900,31200,31200,31440,31560,31680,31800,31920,32040,32160,32280,32400,32520,32640,32760,32880,33000,33120,33240,33360,33480,33600,33600,33660,33720,33840,33960,34080,34200,34320,34440,34560,34680,34800,34920,34980,35040,35100,35220,35340,35460,35580,35700,36000,36000,36240,36360,36480,36600,36720,36840,36960,37080,37200,37320,37440,37560,37680,37800,37920,38040,38160,38280,38400,39600,39660,39720,39840,39960,40080,40200,40320,40440,40560,40680,40800,40920,40980,41040,41100,41220,41340,41460,41580,41700,42000,42000,42240,42360,42480,42600,42720,42840,42960,43080,43200,43320,43440,43560,43680,43800,43920,44040,44160,44280,44400,44400,44460,44520,44640,44760,44880,45000,45120,45240,45360,45480,45600,45720,45780,45840,45900,46020,46140,46260,46380,46500,46800,46800,47040,47160,47280,47400,47520,47640,47760,47880,48000,48120,48240,48360,48480,48600,48720,48840,48960,49080,49200,50400,50460,50520,50640,50760,50880,51000,51120,51240,51360,51480,51600,51720,51780,51840,51900,52020,52140,52260,52380,52500,52800,52800,53040,53160,53280,53400,53520,53640,53760,53880,54000,54120,54240,54360,54480,54600,54720,54840,54960,55080,55200,55200,55260,55320,55440,55560,55680,55800,55920,56040,56160,56280,56400,56520,56580,56640,56700,56820,56940,57060,57180,57300,57600,57600,57840,57960,58080,58200,58320,58440,58560,58680,58800,58920,59040,59160,59280,59400,59520,59640,59760,59880,60000,61200,61260,61320,61440,61560,61680,61800,61920,62040,62160,62280,62400,62520,62580,62640,62700,62820,62940,63060,63180,63300,63600,63600,63840,63960,64080,64200,64320,64440,64560,64680,64800,64920,65040,65160,65280,65400,65520,65640,65760,65880,66000,66000,66060,66120,66180,66240,66300,66360,66420,66480,66540,66600,66660,66720,66780,66840,66900,67020,67140,67260,67380,67500,67800,69000,69120,69240,69360,69480,69600,69720,69840,69960,70080,70200,70260,70320,70380,70440,70500,70560,70620,70680,70800,78000,78060,78120,78180,78240,78300,78360,78420,78480,78540,78600,78660,78720,78780,78840,78900,79020,79140,79260,79380,79500,79800,79800,79800,79800,79800,79800,79800,79800,79800,79800,79800,79800,79800,79800,79800,79800,79800,79800,79800,79800,79800,79800,79800,79800,79800,79800,79800,79800,79800,79800,79800,79800,79800,79800,79800,79800,79800,79800,79800,79800,79800,79800,79800,79800,79800,79800,79800,79800,79800,79800,79800,79800,79800,79800,79800,79800,79800,79800,79800,79800,79800,79800,79800,79800,79800,79800,79800,79800,79800,79800,79800,79800,79800,79800,79800,79800,79800,79800,79800,79800,79800,79800,79800,79800,79800,79800,79800,79800,79800,79800,79800,79800,79800,79800,79800,79800,79800,79800,79800,79800,79800,79800,79800,79800,79800,79800,79800,79800,79800,79800,79800,79800,79800,79800,79800,79800,79800,79800,79800,79800,79800,79800,79800,79800,79800,79800,79800,  % Bus 3
  28800,29040,29160,29280,29400,29520,29640,29760,29880,30000,30120,30240,30360,30480,30600,30720,30840,30960,31080,31200,31200,31260,31320,31440,31560,31680,31800,31920,32040,32160,32280,32400,32520,32580,32640,32700,32820,32940,33060,33180,33300,33600,33600,33840,33960,34080,34200,34320,34440,34560,34680,34800,34920,35040,35160,35280,35400,35520,35640,35760,35880,36000,36000,36060,36120,36240,36360,36480,36600,36720,36840,36960,37080,37200,37320,37380,37440,37500,37620,37740,37860,37980,38100,38400,39600,39840,39960,40080,40200,40320,40440,40560,40680,40800,40920,41040,41160,41280,41400,41520,41640,41760,41880,42000,46800,46860,46920,47040,47160,47280,47400,47520,47640,47760,47880,48000,48120,48180,48240,48300,48420,48540,48660,48780,48900,49200,50400,50640,50760,50880,51000,51120,51240,51360,51480,51600,51720,51840,51960,52080,52200,52320,52440,52560,52680,52800,52800,52860,52920,53040,53160,53280,53400,53520,53640,53760,53880,54000,54120,54180,54240,54300,54420,54540,54660,54780,54900,55200,55200,55440,55560,55680,55800,55920,56040,56160,56280,56400,56520,56640,56760,56880,57000,57120,57240,57360,57480,57600,58800,58860,58920,59040,59160,59280,59400,59520,59640,59760,59880,60000,60120,60180,60240,60300,60420,60540,60660,60780,60900,61200,61200,61440,61560,61680,61800,61920,62040,62160,62280,62400,62520,62640,62760,62880,63000,63120,63240,63360,63480,63600,63600,63660,63720,63840,63960,64080,64200,64320,64440,64560,64680,64800,64920,64980,65040,65100,65220,65340,65460,65580,65700,66000,66000,66120,66240,66360,66480,66600,66720,66840,66960,67080,67200,67260,67320,67380,67440,67500,67560,67620,67680,67800,69000,69060,69120,69180,69240,69300,69360,69420,69480,69540,69600,69660,69720,69780,69840,69900,70020,70140,70260,70380,70500,70800,78000,78120,78240,78360,78480,78600,78720,78840,78960,79080,79200,79260,79320,79380,79440,79500,79560,79620,79680,79800,79800,79800,79800,79800,79800,79800,79800,79800,79800,79800,79800,79800,79800,79800,79800,79800,79800,79800,79800,79800,79800,79800,79800,79800,79800,79800,79800,79800,79800,79800,79800,79800,79800,79800,79800,79800,79800,79800,79800,79800,79800,79800,79800,79800,79800,79800,79800,79800,79800,79800,79800,79800,79800,79800,79800,79800,79800,79800,79800,79800,79800,79800,79800,79800,79800,79800,79800,79800,79800,79800,79800,79800,79800,79800,79800,79800,79800,79800,79800,79800,79800,79800,79800,79800,79800,79800,79800,79800,79800,79800,79800,79800,79800,79800,79800,79800,79800,79800,79800,79800,79800,79800,79800,79800,79800,79800,79800,79800,79800,79800,79800,79800,79800,79800,79800,79800,79800,79800,79800,79800,79800,79800,79800,79800,79800,79800,79800,79800,79800,79800,79800,79800,79800,79800,79800,79800,79800,79800,79800,79800,79800,79800,79800,79800,79800,79800,79800,79800,79800,79800,79800,79800,79800,79800,79800,79800,79800,79800,79800,79800,79800,79800,79800,79800,79800,79800,79800,79800,79800,79800,79800,79800,79800,79800,79800,79800,79800,79800,79800,79800,79800,79800,79800,79800,79800,79800,79800,79800,79800,79800,  % Bus 4
  37200,37260,37320,37440,37560,37680,37800,37920,38040,38160,38280,38400,38520,38580,38640,38700,38820,38940,39060,39180,39300,39600,44400,44640,44760,44880,45000,45120,45240,45360,45480,45600,45720,45840,45960,46080,46200,46320,46440,46560,46680,46800,48000,48060,48120,48240,48360,48480,48600,48720,48840,48960,49080,49200,49320,49380,49440,49500,49620,49740,49860,49980,50100,50400,58800,59040,59160,59280,59400,59520,59640,59760,59880,60000,60120,60240,60360,60480,60600,60720,60840,60960,61080,61200,61200,61200,61200,61200,61200,61200,61200,61200,61200,61200,61200,61200,61200,61200,61200,61200,61200,61200,61200,61200,61200,61200,61200,61200,61200,61200,61200,61200,61200,61200,61200,61200,61200,61200,61200,61200,61200,61200,61200,61200,61200,61200,61200,61200,61200,61200,61200,61200,61200,61200,61200,61200,61200,61200,61200,61200,61200,61200,61200,61200,61200,61200,61200,61200,61200,61200,61200,61200,61200,61200,61200,61200,61200,61200,61200,61200,61200,61200,61200,61200,61200,61200,61200,61200,61200,61200,61200,61200,61200,61200,61200,61200,61200,61200,61200,61200,61200,61200,61200,61200,61200,61200,61200,61200,61200,61200,61200,61200,61200,61200,61200,61200,61200,61200,61200,61200,61200,61200,61200,61200,61200,61200,61200,61200,61200,61200,61200,61200,61200,61200,61200,61200,61200,61200,61200,61200,61200,61200,61200,61200,61200,61200,61200,61200,61200,61200,61200,61200,61200,61200,61200,61200,61200,61200,61200,61200,61200,61200,61200,61200,61200,61200,61200,61200,61200,61200,61200,61200,61200,61200,61200,61200,61200,61200,61200,61200,61200,61200,61200,61200,61200,61200,61200,61200,61200,61200,61200,61200,61200,61200,61200,61200,61200,61200,61200,61200,61200,61200,61200,61200,61200,61200,61200,61200,61200,61200,61200,61200,61200,61200,61200,61200,61200,61200,61200,61200,61200,61200,61200,61200,61200,61200,61200,61200,61200,61200,61200,61200,61200,61200,61200,61200,61200,61200,61200,61200,61200,61200,61200,61200,61200,61200,61200,61200,61200,61200,61200,61200,61200,61200,61200,61200,61200,61200,61200,61200,61200,61200,61200,61200,61200,61200,61200,61200,61200,61200,61200,61200,61200,61200,61200,61200,61200,61200,61200,61200,61200,61200,61200,61200,61200,61200,61200,61200,61200,61200,61200,61200,61200,61200,61200,61200,61200,61200,61200,61200,61200,61200,61200,61200,61200,61200,61200,61200,61200,61200,61200,61200,61200,61200,61200,61200,61200,61200,61200,61200,61200,61200,61200,61200,61200,61200,61200,61200,61200,61200,61200,61200,61200,61200,61200,61200,61200,61200,61200,61200,61200,61200,61200,61200,61200,61200,61200,61200,61200,61200,61200,61200,61200,61200,61200,61200,61200,61200,61200,61200,61200,61200,61200,61200,61200,61200,61200,61200,61200,61200,61200,61200,61200,61200,61200,61200,61200,61200,61200,61200,61200,61200,61200,61200,61200,61200,61200,61200,61200,61200,61200,61200,61200,61200,61200,61200,61200,61200,61200,61200,61200,61200,61200,61200,61200,61200,61200,61200,61200,61200,61200,61200,61200,61200,61200,61200,61200,61200,61200,61200,61200,61200,61200,61200,  % Bus 5
  37200,37440,37560,37680,37800,37920,38040,38160,38280,38400,38520,38640,38760,38880,39000,39120,39240,39360,39480,39600,42000,42060,42120,42240,42360,42480,42600,42720,42840,42960,43080,43200,43320,43380,43440,43500,43620,43740,43860,43980,44100,44400,48000,48240,48360,48480,48600,48720,48840,48960,49080,49200,49320,49440,49560,49680,49800,49920,50040,50160,50280,50400,57600,57660,57720,57840,57960,58080,58200,58320,58440,58560,58680,58800,58920,58980,59040,59100,59220,59340,59460,59580,59700,60000,60000,60000,60000,60000,60000,60000,60000,60000,60000,60000,60000,60000,60000,60000,60000,60000,60000,60000,60000,60000,60000,60000,60000,60000,60000,60000,60000,60000,60000,60000,60000,60000,60000,60000,60000,60000,60000,60000,60000,60000,60000,60000,60000,60000,60000,60000,60000,60000,60000,60000,60000,60000,60000,60000,60000,60000,60000,60000,60000,60000,60000,60000,60000,60000,60000,60000,60000,60000,60000,60000,60000,60000,60000,60000,60000,60000,60000,60000,60000,60000,60000,60000,60000,60000,60000,60000,60000,60000,60000,60000,60000,60000,60000,60000,60000,60000,60000,60000,60000,60000,60000,60000,60000,60000,60000,60000,60000,60000,60000,60000,60000,60000,60000,60000,60000,60000,60000,60000,60000,60000,60000,60000,60000,60000,60000,60000,60000,60000,60000,60000,60000,60000,60000,60000,60000,60000,60000,60000,60000,60000,60000,60000,60000,60000,60000,60000,60000,60000,60000,60000,60000,60000,60000,60000,60000,60000,60000,60000,60000,60000,60000,60000,60000,60000,60000,60000,60000,60000,60000,60000,60000,60000,60000,60000,60000,60000,60000,60000,60000,60000,60000,60000,60000,60000,60000,60000,60000,60000,60000,60000,60000,60000,60000,60000,60000,60000,60000,60000,60000,60000,60000,60000,60000,60000,60000,60000,60000,60000,60000,60000,60000,60000,60000,60000,60000,60000,60000,60000,60000,60000,60000,60000,60000,60000,60000,60000,60000,60000,60000,60000,60000,60000,60000,60000,60000,60000,60000,60000,60000,60000,60000,60000,60000,60000,60000,60000,60000,60000,60000,60000,60000,60000,60000,60000,60000,60000,60000,60000,60000,60000,60000,60000,60000,60000,60000,60000,60000,60000,60000,60000,60000,60000,60000,60000,60000,60000,60000,60000,60000,60000,60000,60000,60000,60000,60000,60000,60000,60000,60000,60000,60000,60000,60000,60000,60000,60000,60000,60000,60000,60000,60000,60000,60000,60000,60000,60000,60000,60000,60000,60000,60000,60000,60000,60000,60000,60000,60000,60000,60000,60000,60000,60000,60000,60000,60000,60000,60000,60000,60000,60000,60000,60000,60000,60000,60000,60000,60000,60000,60000,60000,60000,60000,60000,60000,60000,60000,60000,60000,60000,60000,60000,60000,60000,60000,60000,60000,60000,60000,60000,60000,60000,60000,60000,60000,60000,60000,60000,60000,60000,60000,60000,60000,60000,60000,60000,60000,60000,60000,60000,60000,60000,60000,60000,60000,60000,60000,60000,60000,60000,60000,60000,60000,60000,60000,60000,60000,60000,60000,60000,60000,60000,60000,60000,60000,60000,60000,60000,60000,60000,60000,60000,60000,60000,60000,60000,60000,60000,60000,60000,60000  % Bus 6
]);
