% ============================================================================
% CLP Test Case: 40_0 (variant: 40_0)
% ============================================================================
% Source: JITS2022 Test Battery (Converted)
% Original file: buses_input_40_0.json
% Converted to CLP format with JAVA-COMPATIBLE CONVENTION:
%   - Energy (D, Cmax, Cmin): distance-based units (meters-equivalent)
%   - alpha: converted from Java chargingRate -> units/second
%   - Time (T, tau_bi, mu, SM, psi, beta): seconds
%
% CONVERSION DETAILS:
% - tau_bi: minutes since 00:00 (no scaling)
% - T: travel times (in seconds)
% - D: direct Java-style distance units (distance_km * 1000)
% - Example: 07:00 -> 25200 seconds
%           1.25 km -> 1250 units
%
% INTERPRETATION GUIDE:
%   - Energy (D): Java-compatible distance units
%   - Time values are in seconds
% ============================================================================

% --- Problem Dimensions ---
num_buses = 16;
num_stations = 157;

% --- Energy Parameters (CLP Model) ---
% Java-compatible values (scaled by 1000: 1 unit = 0.001 kWh)
Cmax = 120000;  % 120.0 kWh scaled
Cmin = 15000;  % 15.0 kWh scaled
alpha = 167;  % 0.167 kWh/min scaled

% --- Time and Schedule Parameters ---
% NO SCALING - values are native minutes
mu = 240;      % Maximum delay in seconds (from dt_max=4 min)
SM = 60;      % Safety margin in seconds (from sm=1.0 min)
psi = 60;     % Minimum charging time in seconds (from min_ct=1 min)
beta = 486;   % Max charging time (scaled units in seconds)
M = 100000;   % Big-M constant (Java-style horizon)

% --- Route Structure ---
max_stops = 673;
num_stops = [566, 568, 378, 356, 670, 673, 651, 673, 436, 433, 644, 598, 506, 435, 368, 184];

% --- Station Sequence (st_bi) ---
% Maps each bus stop to a physical station ID (1-indexed)
st_bi = array2d(1..16, 1..673, [
  1,2,3,4,5,6,7,8,9,10,11,12,13,14,15,16,17,18,19,20,20,21,22,23,24,25,26,27,28,29,30,31,32,33,34,35,36,37,38,39,40,1,1,2,3,4,5,6,7,8,9,10,11,12,13,14,15,16,17,18,19,20,20,21,22,23,24,25,26,27,28,29,30,31,32,33,34,35,36,37,38,39,40,1,1,2,3,4,5,6,7,8,9,10,11,12,13,14,15,16,17,18,19,20,20,21,22,23,24,25,26,27,28,29,30,31,32,33,34,35,36,37,38,39,40,1,1,2,3,4,5,6,7,8,9,10,11,12,13,14,15,16,17,18,19,20,20,21,22,23,24,25,26,27,28,29,30,31,32,33,34,35,36,37,38,39,40,1,1,2,3,4,5,6,7,8,9,10,11,12,13,14,15,16,17,18,19,20,20,21,22,23,24,25,26,27,28,29,30,31,32,33,34,35,36,37,38,39,40,1,1,2,3,4,5,6,7,8,9,10,11,12,13,14,15,16,17,18,19,20,20,21,22,23,24,25,26,27,28,29,30,31,32,33,34,35,36,37,38,39,40,1,1,2,3,4,5,6,7,8,9,10,11,12,13,14,15,16,17,18,19,20,20,21,22,23,24,25,26,27,28,29,30,31,32,33,34,35,36,37,38,39,40,1,1,2,3,4,5,6,7,8,9,10,11,12,13,14,15,16,17,18,19,20,20,21,22,23,24,25,26,27,28,29,30,31,32,33,34,35,36,37,38,39,40,1,1,2,3,4,5,6,7,8,9,10,11,12,13,14,15,16,17,18,19,20,20,21,22,23,24,25,26,27,28,29,30,31,32,33,34,35,36,37,38,39,40,1,1,2,3,4,5,6,7,8,9,10,11,12,13,14,15,16,17,18,19,20,20,21,22,23,24,25,26,27,28,29,30,31,32,33,34,35,36,37,38,39,40,1,1,2,3,4,5,6,7,8,9,10,11,12,13,14,15,16,17,18,19,20,20,21,22,23,24,25,26,27,28,29,30,31,32,33,34,35,36,37,38,39,40,1,1,2,3,4,5,6,7,8,9,10,11,12,13,14,15,16,17,18,19,20,20,21,22,23,24,25,26,27,28,29,30,31,32,33,34,35,36,37,38,39,40,1,1,2,3,4,5,6,7,8,9,10,11,12,13,14,15,16,17,18,19,20,20,21,22,23,24,25,26,27,28,29,30,31,32,33,34,35,36,37,38,39,40,1,1,2,3,4,5,6,7,8,9,10,11,12,13,14,15,16,17,18,19,20,20,20,20,20,20,20,20,20,20,20,20,20,20,20,20,20,20,20,20,20,20,20,20,20,20,20,20,20,20,20,20,20,20,20,20,20,20,20,20,20,20,20,20,20,20,20,20,20,20,20,20,20,20,20,20,20,20,20,20,20,20,20,20,20,20,20,20,20,20,20,20,20,20,20,20,20,20,20,20,20,20,20,20,20,20,20,20,20,20,20,20,20,20,20,20,20,20,20,20,20,20,20,20,20,20,20,20,  % Bus 1
  20,21,22,23,24,25,26,27,28,29,30,31,32,33,34,35,36,37,38,39,40,1,1,2,3,4,5,6,7,8,9,10,11,12,13,14,15,16,17,18,19,20,20,21,22,23,24,25,26,27,28,29,30,31,32,33,34,35,36,37,38,39,40,1,1,2,3,4,5,6,7,8,9,10,11,12,13,14,15,16,17,18,19,20,20,21,22,23,24,25,26,27,28,29,30,31,32,33,34,35,36,37,38,39,40,1,1,2,3,4,5,6,7,8,9,10,11,12,13,14,15,16,17,18,19,20,20,21,22,23,24,25,26,27,28,29,30,31,32,33,34,35,36,37,38,39,40,1,1,2,3,4,5,6,7,8,9,10,11,12,13,14,15,16,17,18,19,20,20,21,22,23,24,25,26,27,28,29,30,31,32,33,34,35,36,37,38,39,40,1,1,2,3,4,5,6,7,8,9,10,11,12,13,14,15,16,17,18,19,20,20,21,22,23,24,25,26,27,28,29,30,31,32,33,34,35,36,37,38,39,40,1,1,2,3,4,5,6,7,8,9,10,11,12,13,14,15,16,17,18,19,20,20,21,22,23,24,25,26,27,28,29,30,31,32,33,34,35,36,37,38,39,40,1,1,2,3,4,5,6,7,8,9,10,11,12,13,14,15,16,17,18,19,20,20,21,22,23,24,25,26,27,28,29,30,31,32,33,34,35,36,37,38,39,40,1,1,2,3,4,5,6,7,8,9,10,11,12,13,14,15,16,17,18,19,20,20,21,22,23,24,25,26,27,28,29,30,31,32,33,34,35,36,37,38,39,40,1,1,2,3,4,5,6,7,8,9,10,11,12,13,14,15,16,17,18,19,20,20,21,22,23,24,25,26,27,28,29,30,31,32,33,34,35,36,37,38,39,40,1,1,2,3,4,5,6,7,8,9,10,11,12,13,14,15,16,17,18,19,20,20,21,22,23,24,25,26,27,28,29,30,31,32,33,34,35,36,37,38,39,40,1,1,2,3,4,5,6,7,8,9,10,11,12,13,14,15,16,17,18,19,20,20,21,22,23,24,25,26,27,28,29,30,31,32,33,34,35,36,37,38,39,40,1,1,2,3,4,5,6,7,8,9,10,11,12,13,14,15,16,17,18,19,20,20,21,22,23,24,25,26,27,28,29,30,31,32,33,34,35,36,37,38,39,40,1,1,2,3,4,5,6,7,8,9,10,11,12,13,14,15,16,17,18,19,20,20,21,22,23,24,25,26,27,28,29,30,31,32,33,34,35,36,37,38,39,40,1,1,1,1,1,1,1,1,1,1,1,1,1,1,1,1,1,1,1,1,1,1,1,1,1,1,1,1,1,1,1,1,1,1,1,1,1,1,1,1,1,1,1,1,1,1,1,1,1,1,1,1,1,1,1,1,1,1,1,1,1,1,1,1,1,1,1,1,1,1,1,1,1,1,1,1,1,1,1,1,1,1,1,1,1,1,1,1,1,1,1,1,1,1,1,1,1,1,1,1,1,1,1,1,1,1,  % Bus 2
  1,2,3,4,5,6,7,8,9,10,11,12,13,14,15,16,17,18,19,20,20,21,22,23,24,25,26,27,28,29,30,31,32,33,34,35,36,37,38,39,40,1,1,2,3,4,5,6,7,8,9,10,11,12,13,14,15,16,17,18,19,20,20,21,22,23,24,25,26,27,28,29,30,31,32,33,34,35,36,37,38,39,40,1,1,2,3,4,5,6,7,8,9,10,11,12,13,14,15,16,17,18,19,20,20,21,22,23,24,25,26,27,28,29,30,31,32,33,34,35,36,37,38,39,40,1,1,2,3,4,5,6,7,8,9,10,11,12,13,14,15,16,17,18,19,20,20,21,22,23,24,25,26,27,28,29,30,31,32,33,34,35,36,37,38,39,40,1,1,2,3,4,5,6,7,8,9,10,11,12,13,14,15,16,17,18,19,20,20,21,22,23,24,25,26,27,28,29,30,31,32,33,34,35,36,37,38,39,40,1,1,2,3,4,5,6,7,8,9,10,11,12,13,14,15,16,17,18,19,20,20,21,22,23,24,25,26,27,28,29,30,31,32,33,34,35,36,37,38,39,40,1,1,2,3,4,5,6,7,8,9,10,11,12,13,14,15,16,17,18,19,20,20,21,22,23,24,25,26,27,28,29,30,31,32,33,34,35,36,37,38,39,40,1,1,2,3,4,5,6,7,8,9,10,11,12,13,14,15,16,17,18,19,20,20,21,22,23,24,25,26,27,28,29,30,31,32,33,34,35,36,37,38,39,40,1,1,2,3,4,5,6,7,8,9,10,11,12,13,14,15,16,17,18,19,20,20,21,22,23,24,25,26,27,28,29,30,31,32,33,34,35,36,37,38,39,40,1,1,1,1,1,1,1,1,1,1,1,1,1,1,1,1,1,1,1,1,1,1,1,1,1,1,1,1,1,1,1,1,1,1,1,1,1,1,1,1,1,1,1,1,1,1,1,1,1,1,1,1,1,1,1,1,1,1,1,1,1,1,1,1,1,1,1,1,1,1,1,1,1,1,1,1,1,1,1,1,1,1,1,1,1,1,1,1,1,1,1,1,1,1,1,1,1,1,1,1,1,1,1,1,1,1,1,1,1,1,1,1,1,1,1,1,1,1,1,1,1,1,1,1,1,1,1,1,1,1,1,1,1,1,1,1,1,1,1,1,1,1,1,1,1,1,1,1,1,1,1,1,1,1,1,1,1,1,1,1,1,1,1,1,1,1,1,1,1,1,1,1,1,1,1,1,1,1,1,1,1,1,1,1,1,1,1,1,1,1,1,1,1,1,1,1,1,1,1,1,1,1,1,1,1,1,1,1,1,1,1,1,1,1,1,1,1,1,1,1,1,1,1,1,1,1,1,1,1,1,1,1,1,1,1,1,1,1,1,1,1,1,1,1,1,1,1,1,1,1,1,1,1,1,1,1,1,1,1,1,1,1,1,1,1,1,1,1,1,1,1,1,1,1,1,1,1,1,1,1,1,1,1,1,1,1,1,1,1,1,1,1,1,1,1,1,  % Bus 3
  1,2,3,4,5,6,7,8,9,10,11,12,13,14,15,16,17,18,19,20,20,21,22,23,24,25,26,27,28,29,30,31,32,33,34,35,36,37,38,39,40,1,1,2,3,4,5,6,7,8,9,10,11,12,13,14,15,16,17,18,19,20,20,21,22,23,24,25,26,27,28,29,30,31,32,33,34,35,36,37,38,39,40,1,1,2,3,4,5,6,7,8,9,10,11,12,13,14,15,16,17,18,19,20,20,21,22,23,24,25,26,27,28,29,30,31,32,33,34,35,36,37,38,39,40,1,1,2,3,4,5,6,7,8,9,10,11,12,13,14,15,16,17,18,19,20,20,21,22,23,24,25,26,27,28,29,30,31,32,33,34,35,36,37,38,39,40,1,1,2,3,4,5,6,7,8,9,10,11,12,13,14,15,16,17,18,19,20,20,21,22,23,24,25,26,27,28,29,30,31,32,33,34,35,36,37,38,39,40,1,1,2,3,4,5,6,7,8,9,10,11,12,13,14,15,16,17,18,19,20,20,21,22,23,24,25,26,27,28,29,30,31,32,33,34,35,36,37,38,39,40,1,1,2,3,4,5,6,7,8,9,10,11,12,13,14,15,16,17,18,19,20,20,21,22,23,24,25,26,27,28,29,30,31,32,33,34,35,36,37,38,39,40,1,1,2,3,4,5,6,7,8,9,10,11,12,13,14,15,16,17,18,19,20,20,21,22,23,24,25,26,27,28,29,30,31,32,33,34,35,36,37,38,39,40,1,1,2,3,4,5,6,7,8,9,10,11,12,13,14,15,16,17,18,19,20,20,20,20,20,20,20,20,20,20,20,20,20,20,20,20,20,20,20,20,20,20,20,20,20,20,20,20,20,20,20,20,20,20,20,20,20,20,20,20,20,20,20,20,20,20,20,20,20,20,20,20,20,20,20,20,20,20,20,20,20,20,20,20,20,20,20,20,20,20,20,20,20,20,20,20,20,20,20,20,20,20,20,20,20,20,20,20,20,20,20,20,20,20,20,20,20,20,20,20,20,20,20,20,20,20,20,20,20,20,20,20,20,20,20,20,20,20,20,20,20,20,20,20,20,20,20,20,20,20,20,20,20,20,20,20,20,20,20,20,20,20,20,20,20,20,20,20,20,20,20,20,20,20,20,20,20,20,20,20,20,20,20,20,20,20,20,20,20,20,20,20,20,20,20,20,20,20,20,20,20,20,20,20,20,20,20,20,20,20,20,20,20,20,20,20,20,20,20,20,20,20,20,20,20,20,20,20,20,20,20,20,20,20,20,20,20,20,20,20,20,20,20,20,20,20,20,20,20,20,20,20,20,20,20,20,20,20,20,20,20,20,20,20,20,20,20,20,20,20,20,20,20,20,20,20,20,20,20,20,20,20,20,20,20,20,20,20,20,20,20,20,20,20,20,20,20,20,20,20,20,20,20,20,20,20,20,20,20,20,20,20,20,20,20,20,20,20,20,20,20,20,20,20,20,20,20,20,20,20,20,20,20,20,20,20,20,20,  % Bus 4
  60,61,62,63,64,65,66,67,68,69,70,71,72,73,74,75,76,77,78,78,101,102,103,104,105,106,107,108,109,110,111,112,113,114,115,116,117,82,79,83,84,40,85,86,87,88,89,90,91,92,93,94,95,96,97,98,99,100,80,81,41,42,43,44,45,46,47,48,49,50,51,52,53,54,55,56,57,58,59,60,61,62,63,64,65,66,67,68,69,70,71,72,73,74,75,76,77,78,78,101,102,103,104,105,106,107,108,109,110,111,112,113,114,115,116,117,82,79,83,84,40,85,86,87,88,89,90,91,92,93,94,95,96,97,98,99,100,80,81,41,42,43,44,45,46,47,48,49,50,51,52,53,54,55,56,57,58,59,60,61,62,63,64,65,66,67,68,69,70,71,72,73,74,75,76,77,78,78,101,102,103,104,105,106,107,108,109,110,111,112,113,114,115,116,117,82,79,83,84,40,85,86,87,88,89,90,91,92,93,94,95,96,97,98,99,100,80,81,41,42,43,44,45,46,47,48,49,50,51,52,53,54,55,56,57,58,59,60,61,62,63,64,65,66,67,68,69,70,71,72,73,74,75,76,77,78,78,101,102,103,104,105,106,107,108,109,110,111,112,113,114,115,116,117,82,79,83,84,40,85,86,87,88,89,90,91,92,93,94,95,96,97,98,99,100,80,81,41,42,43,44,45,46,47,48,49,50,51,52,53,54,55,56,57,58,59,60,61,62,63,64,65,66,67,68,69,70,71,72,73,74,75,76,77,78,78,101,102,103,104,105,106,107,108,109,110,111,112,113,114,115,116,117,82,79,83,84,40,85,86,87,88,89,90,91,92,93,94,95,96,97,98,99,100,80,81,41,42,43,44,45,46,47,48,49,50,51,52,53,54,55,56,57,58,59,60,61,62,63,64,65,66,67,68,69,70,71,72,73,74,75,76,77,78,78,101,102,103,104,105,106,107,108,109,110,111,112,113,114,115,116,117,82,79,83,84,40,85,86,87,88,89,90,91,92,93,94,95,96,97,98,99,100,80,81,41,42,43,44,45,46,47,48,49,50,51,52,53,54,55,56,57,58,59,60,61,62,63,64,65,66,67,68,69,70,71,72,73,74,75,76,77,78,78,101,102,103,104,105,106,107,108,109,110,111,112,113,114,115,116,117,82,79,83,84,40,85,86,87,88,89,90,91,92,93,94,95,96,97,98,99,100,80,81,41,42,43,44,45,46,47,48,49,50,51,52,53,54,55,56,57,58,59,60,61,62,63,64,65,66,67,68,69,70,71,72,73,74,75,76,77,78,78,101,102,103,104,105,106,107,108,109,110,111,112,113,114,115,116,117,82,79,83,84,40,85,86,87,88,89,90,91,92,93,94,95,96,97,98,99,100,80,81,41,42,43,44,45,46,47,48,49,50,51,52,53,54,55,56,57,58,59,60,61,62,63,64,65,66,67,68,69,70,71,72,73,74,75,76,77,78,78,101,102,103,104,105,106,107,108,109,110,111,112,113,114,115,116,117,82,82,82,82,  % Bus 5
  79,83,84,40,85,86,87,88,89,90,91,92,93,94,95,96,97,98,99,100,80,81,41,42,43,44,45,46,47,48,49,50,51,52,53,54,55,56,57,58,59,60,61,62,63,64,65,66,67,68,69,70,71,72,73,74,75,76,77,78,78,101,102,103,104,105,106,107,108,109,110,111,112,113,114,115,116,117,82,79,83,84,40,85,86,87,88,89,90,91,92,93,94,95,96,97,98,99,100,80,81,41,42,43,44,45,46,47,48,49,50,51,52,53,54,55,56,57,58,59,60,61,62,63,64,65,66,67,68,69,70,71,72,73,74,75,76,77,78,78,101,102,103,104,105,106,107,108,109,110,111,112,113,114,115,116,117,82,79,83,84,40,85,86,87,88,89,90,91,92,93,94,95,96,97,98,99,100,80,81,41,42,43,44,45,46,47,48,49,50,51,52,53,54,55,56,57,58,59,60,61,62,63,64,65,66,67,68,69,70,71,72,73,74,75,76,77,78,78,101,102,103,104,105,106,107,108,109,110,111,112,113,114,115,116,117,82,79,83,84,40,85,86,87,88,89,90,91,92,93,94,95,96,97,98,99,100,80,81,41,42,43,44,45,46,47,48,49,50,51,52,53,54,55,56,57,58,59,60,61,62,63,64,65,66,67,68,69,70,71,72,73,74,75,76,77,78,78,101,102,103,104,105,106,107,108,109,110,111,112,113,114,115,116,117,82,79,83,84,40,85,86,87,88,89,90,91,92,93,94,95,96,97,98,99,100,80,81,41,42,43,44,45,46,47,48,49,50,51,52,53,54,55,56,57,58,59,60,61,62,63,64,65,66,67,68,69,70,71,72,73,74,75,76,77,78,78,101,102,103,104,105,106,107,108,109,110,111,112,113,114,115,116,117,82,79,83,84,40,85,86,87,88,89,90,91,92,93,94,95,96,97,98,99,100,80,81,41,42,43,44,45,46,47,48,49,50,51,52,53,54,55,56,57,58,59,60,61,62,63,64,65,66,67,68,69,70,71,72,73,74,75,76,77,78,78,101,102,103,104,105,106,107,108,109,110,111,112,113,114,115,116,117,82,78,101,102,103,104,105,106,107,108,109,110,111,112,113,114,115,116,117,82,79,83,84,40,85,86,87,88,89,90,91,92,93,94,95,96,97,98,99,100,80,81,41,42,43,44,45,46,47,48,49,50,51,52,53,54,55,56,57,58,59,60,61,62,63,64,65,66,67,68,69,70,71,72,73,74,75,76,77,78,78,101,102,103,104,105,106,107,108,109,110,111,112,113,114,115,116,117,82,79,83,84,40,85,86,87,88,89,90,91,92,93,94,95,96,97,98,99,100,80,81,41,42,43,44,45,46,47,48,49,50,51,52,53,54,55,56,57,58,59,60,61,62,63,64,65,66,67,68,69,70,71,72,73,74,75,76,77,78,78,101,102,103,104,105,106,107,108,109,110,111,112,113,114,115,116,117,82,79,83,84,40,85,86,87,88,89,90,91,92,93,94,95,96,97,98,99,100,80,81,  % Bus 6
  60,61,62,63,64,65,66,67,68,69,70,71,72,73,74,75,76,77,78,78,101,102,103,104,105,106,107,108,109,110,111,112,113,114,115,116,117,82,79,83,84,40,85,86,87,88,89,90,91,92,93,94,95,96,97,98,99,100,80,81,41,42,43,44,45,46,47,48,49,50,51,52,53,54,55,56,57,58,59,60,61,62,63,64,65,66,67,68,69,70,71,72,73,74,75,76,77,78,78,101,102,103,104,105,106,107,108,109,110,111,112,113,114,115,116,117,82,79,83,84,40,85,86,87,88,89,90,91,92,93,94,95,96,97,98,99,100,80,81,41,42,43,44,45,46,47,48,49,50,51,52,53,54,55,56,57,58,59,60,61,62,63,64,65,66,67,68,69,70,71,72,73,74,75,76,77,78,78,101,102,103,104,105,106,107,108,109,110,111,112,113,114,115,116,117,82,79,83,84,40,85,86,87,88,89,90,91,92,93,94,95,96,97,98,99,100,80,81,41,42,43,44,45,46,47,48,49,50,51,52,53,54,55,56,57,58,59,60,61,62,63,64,65,66,67,68,69,70,71,72,73,74,75,76,77,78,78,101,102,103,104,105,106,107,108,109,110,111,112,113,114,115,116,117,82,79,83,84,40,85,86,87,88,89,90,91,92,93,94,95,96,97,98,99,100,80,81,41,42,43,44,45,46,47,48,49,50,51,52,53,54,55,56,57,58,59,60,61,62,63,64,65,66,67,68,69,70,71,72,73,74,75,76,77,78,78,101,102,103,104,105,106,107,108,109,110,111,112,113,114,115,116,117,82,79,83,84,40,85,86,87,88,89,90,91,92,93,94,95,96,97,98,99,100,80,81,41,42,43,44,45,46,47,48,49,50,51,52,53,54,55,56,57,58,59,60,61,62,63,64,65,66,67,68,69,70,71,72,73,74,75,76,77,78,78,101,102,103,104,105,106,107,108,109,110,111,112,113,114,115,116,117,82,79,83,84,40,85,86,87,88,89,90,91,92,93,94,95,96,97,98,99,100,80,81,41,42,43,44,45,46,47,48,49,50,51,52,53,54,55,56,57,58,59,60,61,62,63,64,65,66,67,68,69,70,71,72,73,74,75,76,77,78,78,101,102,103,104,105,106,107,108,109,110,111,112,113,114,115,116,117,82,79,83,84,40,85,86,87,88,89,90,91,92,93,94,95,96,97,98,99,100,80,81,41,42,43,44,45,46,47,48,49,50,51,52,53,54,55,56,57,58,59,60,61,62,63,64,65,66,67,68,69,70,71,72,73,74,75,76,77,78,78,101,102,103,104,105,106,107,108,109,110,111,112,113,114,115,116,117,82,79,83,84,40,85,86,87,88,89,90,91,92,93,94,95,96,97,98,99,100,80,81,41,42,43,44,45,46,47,48,49,50,51,52,53,54,55,56,57,58,59,60,61,62,63,64,65,66,67,68,69,70,71,72,73,74,75,76,77,78,78,78,78,78,78,78,78,78,78,78,78,78,78,78,78,78,78,78,78,78,78,78,  % Bus 7
  79,83,84,40,85,86,87,88,89,90,91,92,93,94,95,96,97,98,99,100,80,81,41,42,43,44,45,46,47,48,49,50,51,52,53,54,55,56,57,58,59,60,61,62,63,64,65,66,67,68,69,70,71,72,73,74,75,76,77,78,78,101,102,103,104,105,106,107,108,109,110,111,112,113,114,115,116,117,82,79,83,84,40,85,86,87,88,89,90,91,92,93,94,95,96,97,98,99,100,80,81,41,42,43,44,45,46,47,48,49,50,51,52,53,54,55,56,57,58,59,60,61,62,63,64,65,66,67,68,69,70,71,72,73,74,75,76,77,78,78,101,102,103,104,105,106,107,108,109,110,111,112,113,114,115,116,117,82,79,83,84,40,85,86,87,88,89,90,91,92,93,94,95,96,97,98,99,100,80,81,41,42,43,44,45,46,47,48,49,50,51,52,53,54,55,56,57,58,59,60,61,62,63,64,65,66,67,68,69,70,71,72,73,74,75,76,77,78,78,101,102,103,104,105,106,107,108,109,110,111,112,113,114,115,116,117,82,79,83,84,40,85,86,87,88,89,90,91,92,93,94,95,96,97,98,99,100,80,81,41,42,43,44,45,46,47,48,49,50,51,52,53,54,55,56,57,58,59,60,61,62,63,64,65,66,67,68,69,70,71,72,73,74,75,76,77,78,78,101,102,103,104,105,106,107,108,109,110,111,112,113,114,115,116,117,82,79,83,84,40,85,86,87,88,89,90,91,92,93,94,95,96,97,98,99,100,80,81,41,42,43,44,45,46,47,48,49,50,51,52,53,54,55,56,57,58,59,60,61,62,63,64,65,66,67,68,69,70,71,72,73,74,75,76,77,78,78,101,102,103,104,105,106,107,108,109,110,111,112,113,114,115,116,117,82,79,83,84,40,85,86,87,88,89,90,91,92,93,94,95,96,97,98,99,100,80,81,41,42,43,44,45,46,47,48,49,50,51,52,53,54,55,56,57,58,59,60,61,62,63,64,65,66,67,68,69,70,71,72,73,74,75,76,77,78,78,101,102,103,104,105,106,107,108,109,110,111,112,113,114,115,116,117,82,79,83,84,40,85,86,87,88,89,90,91,92,93,94,95,96,97,98,99,100,80,81,41,42,43,44,45,46,47,48,49,50,51,52,53,54,55,56,57,58,59,60,61,62,63,64,65,66,67,68,69,70,71,72,73,74,75,76,77,78,78,101,102,103,104,105,106,107,108,109,110,111,112,113,114,115,116,117,82,79,83,84,40,85,86,87,88,89,90,91,92,93,94,95,96,97,98,99,100,80,81,41,42,43,44,45,46,47,48,49,50,51,52,53,54,55,56,57,58,59,60,61,62,63,64,65,66,67,68,69,70,71,72,73,74,75,76,77,78,78,101,102,103,104,105,106,107,108,109,110,111,112,113,114,115,116,117,82,79,83,84,40,85,86,87,88,89,90,91,92,93,94,95,96,97,98,99,100,80,81,41,42,43,44,45,46,47,48,49,50,51,52,53,54,55,56,57,58,59,  % Bus 8
  79,83,84,40,85,86,87,88,89,90,91,92,93,94,95,96,97,98,99,100,80,81,41,42,43,44,45,46,47,48,49,50,51,52,53,54,55,56,57,58,59,60,61,62,63,64,65,66,67,68,69,70,71,72,73,74,75,76,77,78,78,101,102,103,104,105,106,107,108,109,110,111,112,113,114,115,116,117,82,79,83,84,40,85,86,87,88,89,90,91,92,93,94,95,96,97,98,99,100,80,81,41,42,43,44,45,46,47,48,49,50,51,52,53,54,55,56,57,58,59,60,61,62,63,64,65,66,67,68,69,70,71,72,73,74,75,76,77,78,78,101,102,103,104,105,106,107,108,109,110,111,112,113,114,115,116,117,82,79,83,84,40,85,86,87,88,89,90,91,92,93,94,95,96,97,98,99,100,80,81,41,42,43,44,45,46,47,48,49,50,51,52,53,54,55,56,57,58,59,60,61,62,63,64,65,66,67,68,69,70,71,72,73,74,75,76,77,78,78,101,102,103,104,105,106,107,108,109,110,111,112,113,114,115,116,117,82,79,83,84,40,85,86,87,88,89,90,91,92,93,94,95,96,97,98,99,100,80,81,41,42,43,44,45,46,47,48,49,50,51,52,53,54,55,56,57,58,59,60,61,62,63,64,65,66,67,68,69,70,71,72,73,74,75,76,77,78,78,101,102,103,104,105,106,107,108,109,110,111,112,113,114,115,116,117,82,79,83,84,40,85,86,87,88,89,90,91,92,93,94,95,96,97,98,99,100,80,81,41,42,43,44,45,46,47,48,49,50,51,52,53,54,55,56,57,58,59,60,61,62,63,64,65,66,67,68,69,70,71,72,73,74,75,76,77,78,78,101,102,103,104,105,106,107,108,109,110,111,112,113,114,115,116,117,82,79,83,84,40,85,86,87,88,89,90,91,92,93,94,95,96,97,98,99,100,80,81,41,42,43,44,45,46,47,48,49,50,51,52,53,54,55,56,57,58,59,59,59,59,59,59,59,59,59,59,59,59,59,59,59,59,59,59,59,59,59,59,59,59,59,59,59,59,59,59,59,59,59,59,59,59,59,59,59,59,59,59,59,59,59,59,59,59,59,59,59,59,59,59,59,59,59,59,59,59,59,59,59,59,59,59,59,59,59,59,59,59,59,59,59,59,59,59,59,59,59,59,59,59,59,59,59,59,59,59,59,59,59,59,59,59,59,59,59,59,59,59,59,59,59,59,59,59,59,59,59,59,59,59,59,59,59,59,59,59,59,59,59,59,59,59,59,59,59,59,59,59,59,59,59,59,59,59,59,59,59,59,59,59,59,59,59,59,59,59,59,59,59,59,59,59,59,59,59,59,59,59,59,59,59,59,59,59,59,59,59,59,59,59,59,59,59,59,59,59,59,59,59,59,59,59,59,59,59,59,59,59,59,59,59,59,59,59,59,59,59,59,59,59,59,59,59,59,59,59,59,59,59,59,59,59,59,59,59,59,59,59,59,59,59,59,59,59,59,59,59,59,59,59,59,59,59,59,  % Bus 9
  41,42,43,44,45,46,47,48,49,50,51,52,53,54,55,56,57,58,59,60,61,62,63,64,65,66,67,68,69,70,71,72,73,74,75,76,77,78,78,101,102,103,104,105,106,107,108,109,110,111,112,113,114,115,116,117,82,79,83,84,40,85,86,87,88,89,90,91,92,93,94,95,96,97,98,99,100,80,81,41,42,43,44,45,46,47,48,49,50,51,52,53,54,55,56,57,58,59,60,61,62,63,64,65,66,67,68,69,70,71,72,73,74,75,76,77,78,78,101,102,103,104,105,106,107,108,109,110,111,112,113,114,115,116,117,82,79,83,84,40,85,86,87,88,89,90,91,92,93,94,95,96,97,98,99,100,80,81,41,42,43,44,45,46,47,48,49,50,51,52,53,54,55,56,57,58,59,60,61,62,63,64,65,66,67,68,69,70,71,72,73,74,75,76,77,78,78,101,102,103,104,105,106,107,108,109,110,111,112,113,114,115,116,117,82,79,83,84,40,85,86,87,88,89,90,91,92,93,94,95,96,97,98,99,100,80,81,41,42,43,44,45,46,47,48,49,50,51,52,53,54,55,56,57,58,59,60,61,62,63,64,65,66,67,68,69,70,71,72,73,74,75,76,77,78,78,101,102,103,104,105,106,107,108,109,110,111,112,113,114,115,116,117,82,79,83,84,40,85,86,87,88,89,90,91,92,93,94,95,96,97,98,99,100,80,81,41,42,43,44,45,46,47,48,49,50,51,52,53,54,55,56,57,58,59,60,61,62,63,64,65,66,67,68,69,70,71,72,73,74,75,76,77,78,78,101,102,103,104,105,106,107,108,109,110,111,112,113,114,115,116,117,82,79,83,84,40,85,86,87,88,89,90,91,92,93,94,95,96,97,98,99,100,80,81,41,42,43,44,45,46,47,48,49,50,51,52,53,54,55,56,57,58,59,60,61,62,63,64,65,66,67,68,69,70,71,72,73,74,75,76,77,78,78,78,78,78,78,78,78,78,78,78,78,78,78,78,78,78,78,78,78,78,78,78,78,78,78,78,78,78,78,78,78,78,78,78,78,78,78,78,78,78,78,78,78,78,78,78,78,78,78,78,78,78,78,78,78,78,78,78,78,78,78,78,78,78,78,78,78,78,78,78,78,78,78,78,78,78,78,78,78,78,78,78,78,78,78,78,78,78,78,78,78,78,78,78,78,78,78,78,78,78,78,78,78,78,78,78,78,78,78,78,78,78,78,78,78,78,78,78,78,78,78,78,78,78,78,78,78,78,78,78,78,78,78,78,78,78,78,78,78,78,78,78,78,78,78,78,78,78,78,78,78,78,78,78,78,78,78,78,78,78,78,78,78,78,78,78,78,78,78,78,78,78,78,78,78,78,78,78,78,78,78,78,78,78,78,78,78,78,78,78,78,78,78,78,78,78,78,78,78,78,78,78,78,78,78,78,78,78,78,78,78,78,78,78,78,78,78,78,78,78,78,78,78,78,78,78,78,78,78,78,78,78,78,78,78,78,78,78,78,78,  % Bus 10
  118,119,79,79,83,120,121,122,123,124,125,126,127,128,129,130,131,132,133,134,135,135,137,138,139,140,141,142,143,144,145,146,147,148,149,150,151,152,153,154,155,156,59,136,157,118,118,119,79,79,83,120,121,122,123,124,125,126,127,128,129,130,131,132,133,134,135,135,137,138,139,140,141,142,143,144,145,146,147,148,149,150,151,152,153,154,155,156,59,136,157,118,118,119,79,79,83,120,121,122,123,124,125,126,127,128,129,130,131,132,133,134,135,135,137,138,139,140,141,142,143,144,145,146,147,148,149,150,151,152,153,154,155,156,59,136,157,118,118,119,79,79,83,120,121,122,123,124,125,126,127,128,129,130,131,132,133,134,135,135,137,138,139,140,141,142,143,144,145,146,147,148,149,150,151,152,153,154,155,156,59,136,157,118,118,119,79,79,83,120,121,122,123,124,125,126,127,128,129,130,131,132,133,134,135,135,137,138,139,140,141,142,143,144,145,146,147,148,149,150,151,152,153,154,155,156,59,136,157,118,118,119,79,79,83,120,121,122,123,124,125,126,127,128,129,130,131,132,133,134,135,135,137,138,139,140,141,142,143,144,145,146,147,148,149,150,151,152,153,154,155,156,59,136,157,118,118,119,79,79,83,120,121,122,123,124,125,126,127,128,129,130,131,132,133,134,135,135,137,138,139,140,141,142,143,144,145,146,147,148,149,150,151,152,153,154,155,156,59,136,157,118,118,119,79,79,83,120,121,122,123,124,125,126,127,128,129,130,131,132,133,134,135,135,137,138,139,140,141,142,143,144,145,146,147,148,149,150,151,152,153,154,155,156,59,136,157,118,118,119,79,79,83,120,121,122,123,124,125,126,127,128,129,130,131,132,133,134,135,135,137,138,139,140,141,142,143,144,145,146,147,148,149,150,151,152,153,154,155,156,59,136,157,118,118,119,79,79,83,120,121,122,123,124,125,126,127,128,129,130,131,132,133,134,135,135,137,138,139,140,141,142,143,144,145,146,147,148,149,150,151,152,153,154,155,156,59,136,157,118,118,119,79,79,83,120,121,122,123,124,125,126,127,128,129,130,131,132,133,134,135,135,137,138,139,140,141,142,143,144,145,146,147,148,149,150,151,152,153,154,155,156,59,136,157,118,118,119,79,79,83,120,121,122,123,124,125,126,127,128,129,130,131,132,133,134,135,135,137,138,139,140,141,142,143,144,145,146,147,148,149,150,151,152,153,154,155,156,59,136,157,118,118,119,79,79,83,120,121,122,123,124,125,126,127,128,129,130,131,132,133,134,135,135,137,138,139,140,141,142,143,144,145,146,147,148,149,150,151,152,153,154,155,156,59,136,157,118,118,119,79,79,83,120,121,122,123,124,125,126,127,128,129,130,131,132,133,134,135,135,137,138,139,140,141,142,143,144,145,146,147,148,149,150,151,152,153,154,155,156,59,136,157,118,118,118,118,118,118,118,118,118,118,118,118,118,118,118,118,118,118,118,118,118,118,118,118,118,118,118,118,118,118,  % Bus 11
  135,137,138,139,140,141,142,143,144,145,146,147,148,149,150,151,152,153,154,155,156,59,136,157,118,118,119,79,79,83,120,121,122,123,124,125,126,127,128,129,130,131,132,133,134,135,135,137,138,139,140,141,142,143,144,145,146,147,148,149,150,151,152,153,154,155,156,59,136,157,118,118,119,79,79,83,120,121,122,123,124,125,126,127,128,129,130,131,132,133,134,135,135,137,138,139,140,141,142,143,144,145,146,147,148,149,150,151,152,153,154,155,156,59,136,157,118,118,119,79,79,83,120,121,122,123,124,125,126,127,128,129,130,131,132,133,134,135,135,137,138,139,140,141,142,143,144,145,146,147,148,149,150,151,152,153,154,155,156,59,136,157,118,118,119,79,79,83,120,121,122,123,124,125,126,127,128,129,130,131,132,133,134,135,135,137,138,139,140,141,142,143,144,145,146,147,148,149,150,151,152,153,154,155,156,59,136,157,118,118,119,79,79,83,120,121,122,123,124,125,126,127,128,129,130,131,132,133,134,135,135,137,138,139,140,141,142,143,144,145,146,147,148,149,150,151,152,153,154,155,156,59,136,157,118,118,119,79,79,83,120,121,122,123,124,125,126,127,128,129,130,131,132,133,134,135,135,137,138,139,140,141,142,143,144,145,146,147,148,149,150,151,152,153,154,155,156,59,136,157,118,118,119,79,79,83,120,121,122,123,124,125,126,127,128,129,130,131,132,133,134,135,135,137,138,139,140,141,142,143,144,145,146,147,148,149,150,151,152,153,154,155,156,59,136,157,118,118,119,79,79,83,120,121,122,123,124,125,126,127,128,129,130,131,132,133,134,135,135,137,138,139,140,141,142,143,144,145,146,147,148,149,150,151,152,153,154,155,156,59,136,157,118,118,119,79,79,83,120,121,122,123,124,125,126,127,128,129,130,131,132,133,134,135,135,137,138,139,140,141,142,143,144,145,146,147,148,149,150,151,152,153,154,155,156,59,136,157,118,118,119,79,79,83,120,121,122,123,124,125,126,127,128,129,130,131,132,133,134,135,135,137,138,139,140,141,142,143,144,145,146,147,148,149,150,151,152,153,154,155,156,59,136,157,118,118,119,79,79,83,120,121,122,123,124,125,126,127,128,129,130,131,132,133,134,135,135,137,138,139,140,141,142,143,144,145,146,147,148,149,150,151,152,153,154,155,156,59,136,157,118,118,119,79,79,83,120,121,122,123,124,125,126,127,128,129,130,131,132,133,134,135,135,137,138,139,140,141,142,143,144,145,146,147,148,149,150,151,152,153,154,155,156,59,136,157,118,118,119,79,79,83,120,121,122,123,124,125,126,127,128,129,130,131,132,133,134,135,135,135,135,135,135,135,135,135,135,135,135,135,135,135,135,135,135,135,135,135,135,135,135,135,135,135,135,135,135,135,135,135,135,135,135,135,135,135,135,135,135,135,135,135,135,135,135,135,135,135,135,135,135,135,135,135,135,135,135,135,135,135,135,135,135,135,135,135,135,135,135,135,135,135,135,  % Bus 12
  118,119,79,79,83,120,121,122,123,124,125,126,127,128,129,130,131,132,133,134,135,135,137,138,139,140,141,142,143,144,145,146,147,148,149,150,151,152,153,154,155,156,59,136,157,118,118,119,79,79,83,120,121,122,123,124,125,126,127,128,129,130,131,132,133,134,135,135,137,138,139,140,141,142,143,144,145,146,147,148,149,150,151,152,153,154,155,156,59,136,157,118,118,119,79,79,83,120,121,122,123,124,125,126,127,128,129,130,131,132,133,134,135,135,137,138,139,140,141,142,143,144,145,146,147,148,149,150,151,152,153,154,155,156,59,136,157,118,118,119,79,79,83,120,121,122,123,124,125,126,127,128,129,130,131,132,133,134,135,135,137,138,139,140,141,142,143,144,145,146,147,148,149,150,151,152,153,154,155,156,59,136,157,118,118,119,79,79,83,120,121,122,123,124,125,126,127,128,129,130,131,132,133,134,135,135,137,138,139,140,141,142,143,144,145,146,147,148,149,150,151,152,153,154,155,156,59,136,157,118,118,119,79,79,83,120,121,122,123,124,125,126,127,128,129,130,131,132,133,134,135,135,137,138,139,140,141,142,143,144,145,146,147,148,149,150,151,152,153,154,155,156,59,136,157,118,118,119,79,79,83,120,121,122,123,124,125,126,127,128,129,130,131,132,133,134,135,135,137,138,139,140,141,142,143,144,145,146,147,148,149,150,151,152,153,154,155,156,59,136,157,118,118,119,79,79,83,120,121,122,123,124,125,126,127,128,129,130,131,132,133,134,135,135,137,138,139,140,141,142,143,144,145,146,147,148,149,150,151,152,153,154,155,156,59,136,157,118,118,119,79,79,83,120,121,122,123,124,125,126,127,128,129,130,131,132,133,134,135,135,137,138,139,140,141,142,143,144,145,146,147,148,149,150,151,152,153,154,155,156,59,136,157,118,118,119,79,79,83,120,121,122,123,124,125,126,127,128,129,130,131,132,133,134,135,135,137,138,139,140,141,142,143,144,145,146,147,148,149,150,151,152,153,154,155,156,59,136,157,118,118,119,79,79,83,120,121,122,123,124,125,126,127,128,129,130,131,132,133,134,135,135,137,138,139,140,141,142,143,144,145,146,147,148,149,150,151,152,153,154,155,156,59,136,157,118,118,118,118,118,118,118,118,118,118,118,118,118,118,118,118,118,118,118,118,118,118,118,118,118,118,118,118,118,118,118,118,118,118,118,118,118,118,118,118,118,118,118,118,118,118,118,118,118,118,118,118,118,118,118,118,118,118,118,118,118,118,118,118,118,118,118,118,118,118,118,118,118,118,118,118,118,118,118,118,118,118,118,118,118,118,118,118,118,118,118,118,118,118,118,118,118,118,118,118,118,118,118,118,118,118,118,118,118,118,118,118,118,118,118,118,118,118,118,118,118,118,118,118,118,118,118,118,118,118,118,118,118,118,118,118,118,118,118,118,118,118,118,118,118,118,118,118,118,118,118,118,118,118,118,118,118,118,118,118,118,118,118,118,118,118,118,118,  % Bus 13
  118,119,79,79,83,120,121,122,123,124,125,126,127,128,129,130,131,132,133,134,135,135,137,138,139,140,141,142,143,144,145,146,147,148,149,150,151,152,153,154,155,156,59,136,157,118,118,119,79,79,83,120,121,122,123,124,125,126,127,128,129,130,131,132,133,134,135,135,137,138,139,140,141,142,143,144,145,146,147,148,149,150,151,152,153,154,155,156,59,136,157,118,118,119,79,79,83,120,121,122,123,124,125,126,127,128,129,130,131,132,133,134,135,135,137,138,139,140,141,142,143,144,145,146,147,148,149,150,151,152,153,154,155,156,59,136,157,118,118,119,79,79,83,120,121,122,123,124,125,126,127,128,129,130,131,132,133,134,135,135,137,138,139,140,141,142,143,144,145,146,147,148,149,150,151,152,153,154,155,156,59,136,157,118,118,119,79,79,83,120,121,122,123,124,125,126,127,128,129,130,131,132,133,134,135,135,137,138,139,140,141,142,143,144,145,146,147,148,149,150,151,152,153,154,155,156,59,136,157,118,118,119,79,79,83,120,121,122,123,124,125,126,127,128,129,130,131,132,133,134,135,135,137,138,139,140,141,142,143,144,145,146,147,148,149,150,151,152,153,154,155,156,59,136,157,118,118,119,79,79,83,120,121,122,123,124,125,126,127,128,129,130,131,132,133,134,135,135,137,138,139,140,141,142,143,144,145,146,147,148,149,150,151,152,153,154,155,156,59,136,157,118,118,119,79,79,83,120,121,122,123,124,125,126,127,128,129,130,131,132,133,134,135,135,137,138,139,140,141,142,143,144,145,146,147,148,149,150,151,152,153,154,155,156,59,136,157,118,118,119,79,79,83,120,121,122,123,124,125,126,127,128,129,130,131,132,133,134,135,135,137,138,139,140,141,142,143,144,145,146,147,148,149,150,151,152,153,154,155,156,59,136,157,118,118,119,79,79,83,120,121,122,123,124,125,126,127,128,129,130,131,132,133,134,135,135,135,135,135,135,135,135,135,135,135,135,135,135,135,135,135,135,135,135,135,135,135,135,135,135,135,135,135,135,135,135,135,135,135,135,135,135,135,135,135,135,135,135,135,135,135,135,135,135,135,135,135,135,135,135,135,135,135,135,135,135,135,135,135,135,135,135,135,135,135,135,135,135,135,135,135,135,135,135,135,135,135,135,135,135,135,135,135,135,135,135,135,135,135,135,135,135,135,135,135,135,135,135,135,135,135,135,135,135,135,135,135,135,135,135,135,135,135,135,135,135,135,135,135,135,135,135,135,135,135,135,135,135,135,135,135,135,135,135,135,135,135,135,135,135,135,135,135,135,135,135,135,135,135,135,135,135,135,135,135,135,135,135,135,135,135,135,135,135,135,135,135,135,135,135,135,135,135,135,135,135,135,135,135,135,135,135,135,135,135,135,135,135,135,135,135,135,135,135,135,135,135,135,135,135,135,135,135,135,135,135,135,135,135,135,135,135,135,135,135,135,135,135,135,135,135,135,135,135,135,135,135,135,135,135,135,135,135,  % Bus 14
  135,137,138,139,140,141,142,143,144,145,146,147,148,149,150,151,152,153,154,155,156,59,136,157,118,118,119,79,79,83,120,121,122,123,124,125,126,127,128,129,130,131,132,133,134,135,135,137,138,139,140,141,142,143,144,145,146,147,148,149,150,151,152,153,154,155,156,59,136,157,118,118,119,79,79,83,120,121,122,123,124,125,126,127,128,129,130,131,132,133,134,135,135,137,138,139,140,141,142,143,144,145,146,147,148,149,150,151,152,153,154,155,156,59,136,157,118,118,119,79,79,83,120,121,122,123,124,125,126,127,128,129,130,131,132,133,134,135,135,137,138,139,140,141,142,143,144,145,146,147,148,149,150,151,152,153,154,155,156,59,136,157,118,118,119,79,79,83,120,121,122,123,124,125,126,127,128,129,130,131,132,133,134,135,135,137,138,139,140,141,142,143,144,145,146,147,148,149,150,151,152,153,154,155,156,59,136,157,118,118,119,79,79,83,120,121,122,123,124,125,126,127,128,129,130,131,132,133,134,135,135,137,138,139,140,141,142,143,144,145,146,147,148,149,150,151,152,153,154,155,156,59,136,157,118,118,119,79,79,83,120,121,122,123,124,125,126,127,128,129,130,131,132,133,134,135,135,137,138,139,140,141,142,143,144,145,146,147,148,149,150,151,152,153,154,155,156,59,136,157,118,118,119,79,79,83,120,121,122,123,124,125,126,127,128,129,130,131,132,133,134,135,135,137,138,139,140,141,142,143,144,145,146,147,148,149,150,151,152,153,154,155,156,59,136,157,118,118,119,79,79,83,120,121,122,123,124,125,126,127,128,129,130,131,132,133,134,135,135,135,135,135,135,135,135,135,135,135,135,135,135,135,135,135,135,135,135,135,135,135,135,135,135,135,135,135,135,135,135,135,135,135,135,135,135,135,135,135,135,135,135,135,135,135,135,135,135,135,135,135,135,135,135,135,135,135,135,135,135,135,135,135,135,135,135,135,135,135,135,135,135,135,135,135,135,135,135,135,135,135,135,135,135,135,135,135,135,135,135,135,135,135,135,135,135,135,135,135,135,135,135,135,135,135,135,135,135,135,135,135,135,135,135,135,135,135,135,135,135,135,135,135,135,135,135,135,135,135,135,135,135,135,135,135,135,135,135,135,135,135,135,135,135,135,135,135,135,135,135,135,135,135,135,135,135,135,135,135,135,135,135,135,135,135,135,135,135,135,135,135,135,135,135,135,135,135,135,135,135,135,135,135,135,135,135,135,135,135,135,135,135,135,135,135,135,135,135,135,135,135,135,135,135,135,135,135,135,135,135,135,135,135,135,135,135,135,135,135,135,135,135,135,135,135,135,135,135,135,135,135,135,135,135,135,135,135,135,135,135,135,135,135,135,135,135,135,135,135,135,135,135,135,135,135,135,135,135,135,135,135,135,135,135,135,135,135,135,135,135,135,135,135,135,135,135,135,135,135,135,135,135,135,135,135,135,135,135,135,135,135,135,135,135,135,135,135,135,135,135,135,135,135,135,  % Bus 15
  118,119,79,79,83,120,121,122,123,124,125,126,127,128,129,130,131,132,133,134,135,135,137,138,139,140,141,142,143,144,145,146,147,148,149,150,151,152,153,154,155,156,59,136,157,118,118,119,79,79,83,120,121,122,123,124,125,126,127,128,129,130,131,132,133,134,135,135,137,138,139,140,141,142,143,144,145,146,147,148,149,150,151,152,153,154,155,156,59,136,157,118,118,119,79,79,83,120,121,122,123,124,125,126,127,128,129,130,131,132,133,134,135,135,137,138,139,140,141,142,143,144,145,146,147,148,149,150,151,152,153,154,155,156,59,136,157,118,118,119,79,79,83,120,121,122,123,124,125,126,127,128,129,130,131,132,133,134,135,135,137,138,139,140,141,142,143,144,145,146,147,148,149,150,151,152,153,154,155,156,59,136,157,118,118,118,118,118,118,118,118,118,118,118,118,118,118,118,118,118,118,118,118,118,118,118,118,118,118,118,118,118,118,118,118,118,118,118,118,118,118,118,118,118,118,118,118,118,118,118,118,118,118,118,118,118,118,118,118,118,118,118,118,118,118,118,118,118,118,118,118,118,118,118,118,118,118,118,118,118,118,118,118,118,118,118,118,118,118,118,118,118,118,118,118,118,118,118,118,118,118,118,118,118,118,118,118,118,118,118,118,118,118,118,118,118,118,118,118,118,118,118,118,118,118,118,118,118,118,118,118,118,118,118,118,118,118,118,118,118,118,118,118,118,118,118,118,118,118,118,118,118,118,118,118,118,118,118,118,118,118,118,118,118,118,118,118,118,118,118,118,118,118,118,118,118,118,118,118,118,118,118,118,118,118,118,118,118,118,118,118,118,118,118,118,118,118,118,118,118,118,118,118,118,118,118,118,118,118,118,118,118,118,118,118,118,118,118,118,118,118,118,118,118,118,118,118,118,118,118,118,118,118,118,118,118,118,118,118,118,118,118,118,118,118,118,118,118,118,118,118,118,118,118,118,118,118,118,118,118,118,118,118,118,118,118,118,118,118,118,118,118,118,118,118,118,118,118,118,118,118,118,118,118,118,118,118,118,118,118,118,118,118,118,118,118,118,118,118,118,118,118,118,118,118,118,118,118,118,118,118,118,118,118,118,118,118,118,118,118,118,118,118,118,118,118,118,118,118,118,118,118,118,118,118,118,118,118,118,118,118,118,118,118,118,118,118,118,118,118,118,118,118,118,118,118,118,118,118,118,118,118,118,118,118,118,118,118,118,118,118,118,118,118,118,118,118,118,118,118,118,118,118,118,118,118,118,118,118,118,118,118,118,118,118,118,118,118,118,118,118,118,118,118,118,118,118,118,118,118,118,118,118,118,118,118,118,118,118,118,118,118,118,118,118,118,118,118,118,118,118,118,118,118,118,118,118,118,118,118,118,118,118,118,118,118,118,118,118,118,118,118,118,118,118,118,118,118,118,118,118,118,118,118,118,118,118,118,118,118,118,118,118,118,118,118,118,118,118,118,118,118,118,118,118,118,118,118,118,118,118,118,118  % Bus 16
]);

% --- Energy Consumption (D) ---
% Java-compatible distance-based consumption units
% D[from,to] = int(distance_km * 1000)
D = array2d(1..16, 1..673, [
  0,264,278,245,220,354,208,393,277,234,400,328,271,428,260,284,326,319,881,328,0,201,279,890,534,307,285,254,496,185,320,413,253,193,194,260,256,322,164,362,270,326,0,264,278,245,220,354,208,393,277,234,400,328,271,428,260,284,326,319,881,328,0,201,279,890,534,307,285,254,496,185,320,413,253,193,194,260,256,322,164,362,270,326,0,264,278,245,220,354,208,393,277,234,400,328,271,428,260,284,326,319,881,328,0,201,279,890,534,307,285,254,496,185,320,413,253,193,194,260,256,322,164,362,270,326,0,264,278,245,220,354,208,393,277,234,400,328,271,428,260,284,326,319,881,328,0,201,279,890,534,307,285,254,496,185,320,413,253,193,194,260,256,322,164,362,270,326,0,264,278,245,220,354,208,393,277,234,400,328,271,428,260,284,326,319,881,328,0,201,279,890,534,307,285,254,496,185,320,413,253,193,194,260,256,322,164,362,270,326,0,264,278,245,220,354,208,393,277,234,400,328,271,428,260,284,326,319,881,328,0,201,279,890,534,307,285,254,496,185,320,413,253,193,194,260,256,322,164,362,270,326,0,264,278,245,220,354,208,393,277,234,400,328,271,428,260,284,326,319,881,328,0,201,279,890,534,307,285,254,496,185,320,413,253,193,194,260,256,322,164,362,270,326,0,264,278,245,220,354,208,393,277,234,400,328,271,428,260,284,326,319,881,328,0,201,279,890,534,307,285,254,496,185,320,413,253,193,194,260,256,322,164,362,270,326,0,264,278,245,220,354,208,393,277,234,400,328,271,428,260,284,326,319,881,328,0,201,279,890,534,307,285,254,496,185,320,413,253,193,194,260,256,322,164,362,270,326,0,264,278,245,220,354,208,393,277,234,400,328,271,428,260,284,326,319,881,328,0,201,279,890,534,307,285,254,496,185,320,413,253,193,194,260,256,322,164,362,270,326,0,264,278,245,220,354,208,393,277,234,400,328,271,428,260,284,326,319,881,328,0,201,279,890,534,307,285,254,496,185,320,413,253,193,194,260,256,322,164,362,270,326,0,264,278,245,220,354,208,393,277,234,400,328,271,428,260,284,326,319,881,328,0,201,279,890,534,307,285,254,496,185,320,413,253,193,194,260,256,322,164,362,270,326,0,264,278,245,220,354,208,393,277,234,400,328,271,428,260,284,326,319,881,328,0,201,279,890,534,307,285,254,496,185,320,413,253,193,194,260,256,322,164,362,270,326,0,264,278,245,220,354,208,393,277,234,400,328,271,428,260,284,326,319,881,328,0,0,0,0,0,0,0,0,0,0,0,0,0,0,0,0,0,0,0,0,0,0,0,0,0,0,0,0,0,0,0,0,0,0,0,0,0,0,0,0,0,0,0,0,0,0,0,0,0,0,0,0,0,0,0,0,0,0,0,0,0,0,0,0,0,0,0,0,0,0,0,0,0,0,0,0,0,0,0,0,0,0,0,0,0,0,0,0,0,0,0,0,0,0,0,0,0,0,0,0,0,0,0,0,0,0,0,  % Bus 1
  0,201,279,890,534,307,285,254,496,185,320,413,253,193,194,260,256,322,164,362,270,326,0,264,278,245,220,354,208,393,277,234,400,328,271,428,260,284,326,319,881,328,0,201,279,890,534,307,285,254,496,185,320,413,253,193,194,260,256,322,164,362,270,326,0,264,278,245,220,354,208,393,277,234,400,328,271,428,260,284,326,319,881,328,0,201,279,890,534,307,285,254,496,185,320,413,253,193,194,260,256,322,164,362,270,326,0,264,278,245,220,354,208,393,277,234,400,328,271,428,260,284,326,319,881,328,0,201,279,890,534,307,285,254,496,185,320,413,253,193,194,260,256,322,164,362,270,326,0,264,278,245,220,354,208,393,277,234,400,328,271,428,260,284,326,319,881,328,0,201,279,890,534,307,285,254,496,185,320,413,253,193,194,260,256,322,164,362,270,326,0,264,278,245,220,354,208,393,277,234,400,328,271,428,260,284,326,319,881,328,0,201,279,890,534,307,285,254,496,185,320,413,253,193,194,260,256,322,164,362,270,326,0,264,278,245,220,354,208,393,277,234,400,328,271,428,260,284,326,319,881,328,0,201,279,890,534,307,285,254,496,185,320,413,253,193,194,260,256,322,164,362,270,326,0,264,278,245,220,354,208,393,277,234,400,328,271,428,260,284,326,319,881,328,0,201,279,890,534,307,285,254,496,185,320,413,253,193,194,260,256,322,164,362,270,326,0,264,278,245,220,354,208,393,277,234,400,328,271,428,260,284,326,319,881,328,0,201,279,890,534,307,285,254,496,185,320,413,253,193,194,260,256,322,164,362,270,326,0,264,278,245,220,354,208,393,277,234,400,328,271,428,260,284,326,319,881,328,0,201,279,890,534,307,285,254,496,185,320,413,253,193,194,260,256,322,164,362,270,326,0,264,278,245,220,354,208,393,277,234,400,328,271,428,260,284,326,319,881,328,0,201,279,890,534,307,285,254,496,185,320,413,253,193,194,260,256,322,164,362,270,326,0,264,278,245,220,354,208,393,277,234,400,328,271,428,260,284,326,319,881,328,0,201,279,890,534,307,285,254,496,185,320,413,253,193,194,260,256,322,164,362,270,326,0,264,278,245,220,354,208,393,277,234,400,328,271,428,260,284,326,319,881,328,0,201,279,890,534,307,285,254,496,185,320,413,253,193,194,260,256,322,164,362,270,326,0,264,278,245,220,354,208,393,277,234,400,328,271,428,260,284,326,319,881,328,0,201,279,890,534,307,285,254,496,185,320,413,253,193,194,260,256,322,164,362,270,326,0,0,0,0,0,0,0,0,0,0,0,0,0,0,0,0,0,0,0,0,0,0,0,0,0,0,0,0,0,0,0,0,0,0,0,0,0,0,0,0,0,0,0,0,0,0,0,0,0,0,0,0,0,0,0,0,0,0,0,0,0,0,0,0,0,0,0,0,0,0,0,0,0,0,0,0,0,0,0,0,0,0,0,0,0,0,0,0,0,0,0,0,0,0,0,0,0,0,0,0,0,0,0,0,0,  % Bus 2
  0,264,278,245,220,354,208,393,277,234,400,328,271,428,260,284,326,319,881,328,0,201,279,890,534,307,285,254,496,185,320,413,253,193,194,260,256,322,164,362,270,326,0,264,278,245,220,354,208,393,277,234,400,328,271,428,260,284,326,319,881,328,0,201,279,890,534,307,285,254,496,185,320,413,253,193,194,260,256,322,164,362,270,326,0,264,278,245,220,354,208,393,277,234,400,328,271,428,260,284,326,319,881,328,0,201,279,890,534,307,285,254,496,185,320,413,253,193,194,260,256,322,164,362,270,326,0,264,278,245,220,354,208,393,277,234,400,328,271,428,260,284,326,319,881,328,0,201,279,890,534,307,285,254,496,185,320,413,253,193,194,260,256,322,164,362,270,326,0,264,278,245,220,354,208,393,277,234,400,328,271,428,260,284,326,319,881,328,0,201,279,890,534,307,285,254,496,185,320,413,253,193,194,260,256,322,164,362,270,326,0,264,278,245,220,354,208,393,277,234,400,328,271,428,260,284,326,319,881,328,0,201,279,890,534,307,285,254,496,185,320,413,253,193,194,260,256,322,164,362,270,326,0,264,278,245,220,354,208,393,277,234,400,328,271,428,260,284,326,319,881,328,0,201,279,890,534,307,285,254,496,185,320,413,253,193,194,260,256,322,164,362,270,326,0,264,278,245,220,354,208,393,277,234,400,328,271,428,260,284,326,319,881,328,0,201,279,890,534,307,285,254,496,185,320,413,253,193,194,260,256,322,164,362,270,326,0,264,278,245,220,354,208,393,277,234,400,328,271,428,260,284,326,319,881,328,0,201,279,890,534,307,285,254,496,185,320,413,253,193,194,260,256,322,164,362,270,326,0,0,0,0,0,0,0,0,0,0,0,0,0,0,0,0,0,0,0,0,0,0,0,0,0,0,0,0,0,0,0,0,0,0,0,0,0,0,0,0,0,0,0,0,0,0,0,0,0,0,0,0,0,0,0,0,0,0,0,0,0,0,0,0,0,0,0,0,0,0,0,0,0,0,0,0,0,0,0,0,0,0,0,0,0,0,0,0,0,0,0,0,0,0,0,0,0,0,0,0,0,0,0,0,0,0,0,0,0,0,0,0,0,0,0,0,0,0,0,0,0,0,0,0,0,0,0,0,0,0,0,0,0,0,0,0,0,0,0,0,0,0,0,0,0,0,0,0,0,0,0,0,0,0,0,0,0,0,0,0,0,0,0,0,0,0,0,0,0,0,0,0,0,0,0,0,0,0,0,0,0,0,0,0,0,0,0,0,0,0,0,0,0,0,0,0,0,0,0,0,0,0,0,0,0,0,0,0,0,0,0,0,0,0,0,0,0,0,0,0,0,0,0,0,0,0,0,0,0,0,0,0,0,0,0,0,0,0,0,0,0,0,0,0,0,0,0,0,0,0,0,0,0,0,0,0,0,0,0,0,0,0,0,0,0,0,0,0,0,0,0,0,0,0,0,0,0,0,0,0,0,0,0,0,0,0,0,0,0,0,0,0,0,0,0,  % Bus 3
  0,264,278,245,220,354,208,393,277,234,400,328,271,428,260,284,326,319,881,328,0,201,279,890,534,307,285,254,496,185,320,413,253,193,194,260,256,322,164,362,270,326,0,264,278,245,220,354,208,393,277,234,400,328,271,428,260,284,326,319,881,328,0,201,279,890,534,307,285,254,496,185,320,413,253,193,194,260,256,322,164,362,270,326,0,264,278,245,220,354,208,393,277,234,400,328,271,428,260,284,326,319,881,328,0,201,279,890,534,307,285,254,496,185,320,413,253,193,194,260,256,322,164,362,270,326,0,264,278,245,220,354,208,393,277,234,400,328,271,428,260,284,326,319,881,328,0,201,279,890,534,307,285,254,496,185,320,413,253,193,194,260,256,322,164,362,270,326,0,264,278,245,220,354,208,393,277,234,400,328,271,428,260,284,326,319,881,328,0,201,279,890,534,307,285,254,496,185,320,413,253,193,194,260,256,322,164,362,270,326,0,264,278,245,220,354,208,393,277,234,400,328,271,428,260,284,326,319,881,328,0,201,279,890,534,307,285,254,496,185,320,413,253,193,194,260,256,322,164,362,270,326,0,264,278,245,220,354,208,393,277,234,400,328,271,428,260,284,326,319,881,328,0,201,279,890,534,307,285,254,496,185,320,413,253,193,194,260,256,322,164,362,270,326,0,264,278,245,220,354,208,393,277,234,400,328,271,428,260,284,326,319,881,328,0,201,279,890,534,307,285,254,496,185,320,413,253,193,194,260,256,322,164,362,270,326,0,264,278,245,220,354,208,393,277,234,400,328,271,428,260,284,326,319,881,328,0,0,0,0,0,0,0,0,0,0,0,0,0,0,0,0,0,0,0,0,0,0,0,0,0,0,0,0,0,0,0,0,0,0,0,0,0,0,0,0,0,0,0,0,0,0,0,0,0,0,0,0,0,0,0,0,0,0,0,0,0,0,0,0,0,0,0,0,0,0,0,0,0,0,0,0,0,0,0,0,0,0,0,0,0,0,0,0,0,0,0,0,0,0,0,0,0,0,0,0,0,0,0,0,0,0,0,0,0,0,0,0,0,0,0,0,0,0,0,0,0,0,0,0,0,0,0,0,0,0,0,0,0,0,0,0,0,0,0,0,0,0,0,0,0,0,0,0,0,0,0,0,0,0,0,0,0,0,0,0,0,0,0,0,0,0,0,0,0,0,0,0,0,0,0,0,0,0,0,0,0,0,0,0,0,0,0,0,0,0,0,0,0,0,0,0,0,0,0,0,0,0,0,0,0,0,0,0,0,0,0,0,0,0,0,0,0,0,0,0,0,0,0,0,0,0,0,0,0,0,0,0,0,0,0,0,0,0,0,0,0,0,0,0,0,0,0,0,0,0,0,0,0,0,0,0,0,0,0,0,0,0,0,0,0,0,0,0,0,0,0,0,0,0,0,0,0,0,0,0,0,0,0,0,0,0,0,0,0,0,0,0,0,0,0,0,0,0,0,0,0,0,0,0,0,0,0,0,0,0,0,0,0,0,0,0,0,  % Bus 4
  0,453,473,271,255,385,157,171,243,294,207,283,281,210,272,226,308,238,407,0,308,236,99,135,172,194,187,315,210,255,127,268,255,395,253,334,297,620,191,274,204,267,384,441,253,347,236,143,325,248,292,188,400,197,280,241,205,521,550,271,17,877,944,237,289,247,267,149,392,254,211,329,214,359,426,251,144,321,541,365,453,473,271,255,385,157,171,243,294,207,283,281,210,272,226,308,238,407,0,308,236,99,135,172,194,187,315,210,255,127,268,255,395,253,334,297,620,191,274,204,267,384,441,253,347,236,143,325,248,292,188,400,197,280,241,205,521,550,271,17,877,944,237,289,247,267,149,392,254,211,329,214,359,426,251,144,321,541,365,453,473,271,255,385,157,171,243,294,207,283,281,210,272,226,308,238,407,0,308,236,99,135,172,194,187,315,210,255,127,268,255,395,253,334,297,620,191,274,204,267,384,441,253,347,236,143,325,248,292,188,400,197,280,241,205,521,550,271,17,877,944,237,289,247,267,149,392,254,211,329,214,359,426,251,144,321,541,365,453,473,271,255,385,157,171,243,294,207,283,281,210,272,226,308,238,407,0,308,236,99,135,172,194,187,315,210,255,127,268,255,395,253,334,297,620,191,274,204,267,384,441,253,347,236,143,325,248,292,188,400,197,280,241,205,521,550,271,17,877,944,237,289,247,267,149,392,254,211,329,214,359,426,251,144,321,541,365,453,473,271,255,385,157,171,243,294,207,283,281,210,272,226,308,238,407,0,308,236,99,135,172,194,187,315,210,255,127,268,255,395,253,334,297,620,191,274,204,267,384,441,253,347,236,143,325,248,292,188,400,197,280,241,205,521,550,271,17,877,944,237,289,247,267,149,392,254,211,329,214,359,426,251,144,321,541,365,453,473,271,255,385,157,171,243,294,207,283,281,210,272,226,308,238,407,0,308,236,99,135,172,194,187,315,210,255,127,268,255,395,253,334,297,620,191,274,204,267,384,441,253,347,236,143,325,248,292,188,400,197,280,241,205,521,550,271,17,877,944,237,289,247,267,149,392,254,211,329,214,359,426,251,144,321,541,365,453,473,271,255,385,157,171,243,294,207,283,281,210,272,226,308,238,407,0,308,236,99,135,172,194,187,315,210,255,127,268,255,395,253,334,297,620,191,274,204,267,384,441,253,347,236,143,325,248,292,188,400,197,280,241,205,521,550,271,17,877,944,237,289,247,267,149,392,254,211,329,214,359,426,251,144,321,541,365,453,473,271,255,385,157,171,243,294,207,283,281,210,272,226,308,238,407,0,308,236,99,135,172,194,187,315,210,255,127,268,255,395,253,334,297,620,191,274,204,267,384,441,253,347,236,143,325,248,292,188,400,197,280,241,205,521,550,271,17,877,944,237,289,247,267,149,392,254,211,329,214,359,426,251,144,321,541,365,453,473,271,255,385,157,171,243,294,207,283,281,210,272,226,308,238,407,0,308,236,99,135,172,194,187,315,210,255,127,268,255,395,253,334,297,620,0,0,0,  % Bus 5
  0,274,204,267,384,441,253,347,236,143,325,248,292,188,400,197,280,241,205,521,550,271,17,877,944,237,289,247,267,149,392,254,211,329,214,359,426,251,144,321,541,365,453,473,271,255,385,157,171,243,294,207,283,281,210,272,226,308,238,407,0,308,236,99,135,172,194,187,315,210,255,127,268,255,395,253,334,297,620,191,274,204,267,384,441,253,347,236,143,325,248,292,188,400,197,280,241,205,521,550,271,17,877,944,237,289,247,267,149,392,254,211,329,214,359,426,251,144,321,541,365,453,473,271,255,385,157,171,243,294,207,283,281,210,272,226,308,238,407,0,308,236,99,135,172,194,187,315,210,255,127,268,255,395,253,334,297,620,191,274,204,267,384,441,253,347,236,143,325,248,292,188,400,197,280,241,205,521,550,271,17,877,944,237,289,247,267,149,392,254,211,329,214,359,426,251,144,321,541,365,453,473,271,255,385,157,171,243,294,207,283,281,210,272,226,308,238,407,0,308,236,99,135,172,194,187,315,210,255,127,268,255,395,253,334,297,620,191,274,204,267,384,441,253,347,236,143,325,248,292,188,400,197,280,241,205,521,550,271,17,877,944,237,289,247,267,149,392,254,211,329,214,359,426,251,144,321,541,365,453,473,271,255,385,157,171,243,294,207,283,281,210,272,226,308,238,407,0,308,236,99,135,172,194,187,315,210,255,127,268,255,395,253,334,297,620,191,274,204,267,384,441,253,347,236,143,325,248,292,188,400,197,280,241,205,521,550,271,17,877,944,237,289,247,267,149,392,254,211,329,214,359,426,251,144,321,541,365,453,473,271,255,385,157,171,243,294,207,283,281,210,272,226,308,238,407,0,308,236,99,135,172,194,187,315,210,255,127,268,255,395,253,334,297,620,191,274,204,267,384,441,253,347,236,143,325,248,292,188,400,197,280,241,205,521,550,271,17,877,944,237,289,247,267,149,392,254,211,329,214,359,426,251,144,321,541,365,453,473,271,255,385,157,171,243,294,207,283,281,210,272,226,308,238,407,0,308,236,99,135,172,194,187,315,210,255,127,268,255,395,253,334,297,620,3045,308,236,99,135,172,194,187,315,210,255,127,268,255,395,253,334,297,620,191,274,204,267,384,441,253,347,236,143,325,248,292,188,400,197,280,241,205,521,550,271,17,877,944,237,289,247,267,149,392,254,211,329,214,359,426,251,144,321,541,365,453,473,271,255,385,157,171,243,294,207,283,281,210,272,226,308,238,407,0,308,236,99,135,172,194,187,315,210,255,127,268,255,395,253,334,297,620,191,274,204,267,384,441,253,347,236,143,325,248,292,188,400,197,280,241,205,521,550,271,17,877,944,237,289,247,267,149,392,254,211,329,214,359,426,251,144,321,541,365,453,473,271,255,385,157,171,243,294,207,283,281,210,272,226,308,238,407,0,308,236,99,135,172,194,187,315,210,255,127,268,255,395,253,334,297,620,191,274,204,267,384,441,253,347,236,143,325,248,292,188,400,197,280,241,205,521,550,271,  % Bus 6
  0,453,473,271,255,385,157,171,243,294,207,283,281,210,272,226,308,238,407,0,308,236,99,135,172,194,187,315,210,255,127,268,255,395,253,334,297,620,191,274,204,267,384,441,253,347,236,143,325,248,292,188,400,197,280,241,205,521,550,271,17,877,944,237,289,247,267,149,392,254,211,329,214,359,426,251,144,321,541,365,453,473,271,255,385,157,171,243,294,207,283,281,210,272,226,308,238,407,0,308,236,99,135,172,194,187,315,210,255,127,268,255,395,253,334,297,620,191,274,204,267,384,441,253,347,236,143,325,248,292,188,400,197,280,241,205,521,550,271,17,877,944,237,289,247,267,149,392,254,211,329,214,359,426,251,144,321,541,365,453,473,271,255,385,157,171,243,294,207,283,281,210,272,226,308,238,407,0,308,236,99,135,172,194,187,315,210,255,127,268,255,395,253,334,297,620,191,274,204,267,384,441,253,347,236,143,325,248,292,188,400,197,280,241,205,521,550,271,17,877,944,237,289,247,267,149,392,254,211,329,214,359,426,251,144,321,541,365,453,473,271,255,385,157,171,243,294,207,283,281,210,272,226,308,238,407,0,308,236,99,135,172,194,187,315,210,255,127,268,255,395,253,334,297,620,191,274,204,267,384,441,253,347,236,143,325,248,292,188,400,197,280,241,205,521,550,271,17,877,944,237,289,247,267,149,392,254,211,329,214,359,426,251,144,321,541,365,453,473,271,255,385,157,171,243,294,207,283,281,210,272,226,308,238,407,0,308,236,99,135,172,194,187,315,210,255,127,268,255,395,253,334,297,620,191,274,204,267,384,441,253,347,236,143,325,248,292,188,400,197,280,241,205,521,550,271,17,877,944,237,289,247,267,149,392,254,211,329,214,359,426,251,144,321,541,365,453,473,271,255,385,157,171,243,294,207,283,281,210,272,226,308,238,407,0,308,236,99,135,172,194,187,315,210,255,127,268,255,395,253,334,297,620,191,274,204,267,384,441,253,347,236,143,325,248,292,188,400,197,280,241,205,521,550,271,17,877,944,237,289,247,267,149,392,254,211,329,214,359,426,251,144,321,541,365,453,473,271,255,385,157,171,243,294,207,283,281,210,272,226,308,238,407,0,308,236,99,135,172,194,187,315,210,255,127,268,255,395,253,334,297,620,191,274,204,267,384,441,253,347,236,143,325,248,292,188,400,197,280,241,205,521,550,271,17,877,944,237,289,247,267,149,392,254,211,329,214,359,426,251,144,321,541,365,453,473,271,255,385,157,171,243,294,207,283,281,210,272,226,308,238,407,0,308,236,99,135,172,194,187,315,210,255,127,268,255,395,253,334,297,620,191,274,204,267,384,441,253,347,236,143,325,248,292,188,400,197,280,241,205,521,550,271,17,877,944,237,289,247,267,149,392,254,211,329,214,359,426,251,144,321,541,365,453,473,271,255,385,157,171,243,294,207,283,281,210,272,226,308,238,407,0,0,0,0,0,0,0,0,0,0,0,0,0,0,0,0,0,0,0,0,0,0,  % Bus 7
  0,274,204,267,384,441,253,347,236,143,325,248,292,188,400,197,280,241,205,521,550,271,17,877,944,237,289,247,267,149,392,254,211,329,214,359,426,251,144,321,541,365,453,473,271,255,385,157,171,243,294,207,283,281,210,272,226,308,238,407,0,308,236,99,135,172,194,187,315,210,255,127,268,255,395,253,334,297,620,191,274,204,267,384,441,253,347,236,143,325,248,292,188,400,197,280,241,205,521,550,271,17,877,944,237,289,247,267,149,392,254,211,329,214,359,426,251,144,321,541,365,453,473,271,255,385,157,171,243,294,207,283,281,210,272,226,308,238,407,0,308,236,99,135,172,194,187,315,210,255,127,268,255,395,253,334,297,620,191,274,204,267,384,441,253,347,236,143,325,248,292,188,400,197,280,241,205,521,550,271,17,877,944,237,289,247,267,149,392,254,211,329,214,359,426,251,144,321,541,365,453,473,271,255,385,157,171,243,294,207,283,281,210,272,226,308,238,407,0,308,236,99,135,172,194,187,315,210,255,127,268,255,395,253,334,297,620,191,274,204,267,384,441,253,347,236,143,325,248,292,188,400,197,280,241,205,521,550,271,17,877,944,237,289,247,267,149,392,254,211,329,214,359,426,251,144,321,541,365,453,473,271,255,385,157,171,243,294,207,283,281,210,272,226,308,238,407,0,308,236,99,135,172,194,187,315,210,255,127,268,255,395,253,334,297,620,191,274,204,267,384,441,253,347,236,143,325,248,292,188,400,197,280,241,205,521,550,271,17,877,944,237,289,247,267,149,392,254,211,329,214,359,426,251,144,321,541,365,453,473,271,255,385,157,171,243,294,207,283,281,210,272,226,308,238,407,0,308,236,99,135,172,194,187,315,210,255,127,268,255,395,253,334,297,620,191,274,204,267,384,441,253,347,236,143,325,248,292,188,400,197,280,241,205,521,550,271,17,877,944,237,289,247,267,149,392,254,211,329,214,359,426,251,144,321,541,365,453,473,271,255,385,157,171,243,294,207,283,281,210,272,226,308,238,407,0,308,236,99,135,172,194,187,315,210,255,127,268,255,395,253,334,297,620,191,274,204,267,384,441,253,347,236,143,325,248,292,188,400,197,280,241,205,521,550,271,17,877,944,237,289,247,267,149,392,254,211,329,214,359,426,251,144,321,541,365,453,473,271,255,385,157,171,243,294,207,283,281,210,272,226,308,238,407,0,308,236,99,135,172,194,187,315,210,255,127,268,255,395,253,334,297,620,191,274,204,267,384,441,253,347,236,143,325,248,292,188,400,197,280,241,205,521,550,271,17,877,944,237,289,247,267,149,392,254,211,329,214,359,426,251,144,321,541,365,453,473,271,255,385,157,171,243,294,207,283,281,210,272,226,308,238,407,0,308,236,99,135,172,194,187,315,210,255,127,268,255,395,253,334,297,620,191,274,204,267,384,441,253,347,236,143,325,248,292,188,400,197,280,241,205,521,550,271,17,877,944,237,289,247,267,149,392,254,211,329,214,359,426,251,144,321,541,  % Bus 8
  0,274,204,267,384,441,253,347,236,143,325,248,292,188,400,197,280,241,205,521,550,271,17,877,944,237,289,247,267,149,392,254,211,329,214,359,426,251,144,321,541,365,453,473,271,255,385,157,171,243,294,207,283,281,210,272,226,308,238,407,0,308,236,99,135,172,194,187,315,210,255,127,268,255,395,253,334,297,620,191,274,204,267,384,441,253,347,236,143,325,248,292,188,400,197,280,241,205,521,550,271,17,877,944,237,289,247,267,149,392,254,211,329,214,359,426,251,144,321,541,365,453,473,271,255,385,157,171,243,294,207,283,281,210,272,226,308,238,407,0,308,236,99,135,172,194,187,315,210,255,127,268,255,395,253,334,297,620,191,274,204,267,384,441,253,347,236,143,325,248,292,188,400,197,280,241,205,521,550,271,17,877,944,237,289,247,267,149,392,254,211,329,214,359,426,251,144,321,541,365,453,473,271,255,385,157,171,243,294,207,283,281,210,272,226,308,238,407,0,308,236,99,135,172,194,187,315,210,255,127,268,255,395,253,334,297,620,191,274,204,267,384,441,253,347,236,143,325,248,292,188,400,197,280,241,205,521,550,271,17,877,944,237,289,247,267,149,392,254,211,329,214,359,426,251,144,321,541,365,453,473,271,255,385,157,171,243,294,207,283,281,210,272,226,308,238,407,0,308,236,99,135,172,194,187,315,210,255,127,268,255,395,253,334,297,620,191,274,204,267,384,441,253,347,236,143,325,248,292,188,400,197,280,241,205,521,550,271,17,877,944,237,289,247,267,149,392,254,211,329,214,359,426,251,144,321,541,365,453,473,271,255,385,157,171,243,294,207,283,281,210,272,226,308,238,407,0,308,236,99,135,172,194,187,315,210,255,127,268,255,395,253,334,297,620,191,274,204,267,384,441,253,347,236,143,325,248,292,188,400,197,280,241,205,521,550,271,17,877,944,237,289,247,267,149,392,254,211,329,214,359,426,251,144,321,541,0,0,0,0,0,0,0,0,0,0,0,0,0,0,0,0,0,0,0,0,0,0,0,0,0,0,0,0,0,0,0,0,0,0,0,0,0,0,0,0,0,0,0,0,0,0,0,0,0,0,0,0,0,0,0,0,0,0,0,0,0,0,0,0,0,0,0,0,0,0,0,0,0,0,0,0,0,0,0,0,0,0,0,0,0,0,0,0,0,0,0,0,0,0,0,0,0,0,0,0,0,0,0,0,0,0,0,0,0,0,0,0,0,0,0,0,0,0,0,0,0,0,0,0,0,0,0,0,0,0,0,0,0,0,0,0,0,0,0,0,0,0,0,0,0,0,0,0,0,0,0,0,0,0,0,0,0,0,0,0,0,0,0,0,0,0,0,0,0,0,0,0,0,0,0,0,0,0,0,0,0,0,0,0,0,0,0,0,0,0,0,0,0,0,0,0,0,0,0,0,0,0,0,0,0,0,0,0,0,0,0,0,0,0,0,0,0,0,0,0,0,0,0,0,0,0,0,0,0,0,0,0,0,0,0,0,0,  % Bus 9
  0,877,944,237,289,247,267,149,392,254,211,329,214,359,426,251,144,321,541,365,453,473,271,255,385,157,171,243,294,207,283,281,210,272,226,308,238,407,0,308,236,99,135,172,194,187,315,210,255,127,268,255,395,253,334,297,620,191,274,204,267,384,441,253,347,236,143,325,248,292,188,400,197,280,241,205,521,550,271,17,877,944,237,289,247,267,149,392,254,211,329,214,359,426,251,144,321,541,365,453,473,271,255,385,157,171,243,294,207,283,281,210,272,226,308,238,407,0,308,236,99,135,172,194,187,315,210,255,127,268,255,395,253,334,297,620,191,274,204,267,384,441,253,347,236,143,325,248,292,188,400,197,280,241,205,521,550,271,17,877,944,237,289,247,267,149,392,254,211,329,214,359,426,251,144,321,541,365,453,473,271,255,385,157,171,243,294,207,283,281,210,272,226,308,238,407,0,308,236,99,135,172,194,187,315,210,255,127,268,255,395,253,334,297,620,191,274,204,267,384,441,253,347,236,143,325,248,292,188,400,197,280,241,205,521,550,271,17,877,944,237,289,247,267,149,392,254,211,329,214,359,426,251,144,321,541,365,453,473,271,255,385,157,171,243,294,207,283,281,210,272,226,308,238,407,0,308,236,99,135,172,194,187,315,210,255,127,268,255,395,253,334,297,620,191,274,204,267,384,441,253,347,236,143,325,248,292,188,400,197,280,241,205,521,550,271,17,877,944,237,289,247,267,149,392,254,211,329,214,359,426,251,144,321,541,365,453,473,271,255,385,157,171,243,294,207,283,281,210,272,226,308,238,407,0,308,236,99,135,172,194,187,315,210,255,127,268,255,395,253,334,297,620,191,274,204,267,384,441,253,347,236,143,325,248,292,188,400,197,280,241,205,521,550,271,17,877,944,237,289,247,267,149,392,254,211,329,214,359,426,251,144,321,541,365,453,473,271,255,385,157,171,243,294,207,283,281,210,272,226,308,238,407,0,0,0,0,0,0,0,0,0,0,0,0,0,0,0,0,0,0,0,0,0,0,0,0,0,0,0,0,0,0,0,0,0,0,0,0,0,0,0,0,0,0,0,0,0,0,0,0,0,0,0,0,0,0,0,0,0,0,0,0,0,0,0,0,0,0,0,0,0,0,0,0,0,0,0,0,0,0,0,0,0,0,0,0,0,0,0,0,0,0,0,0,0,0,0,0,0,0,0,0,0,0,0,0,0,0,0,0,0,0,0,0,0,0,0,0,0,0,0,0,0,0,0,0,0,0,0,0,0,0,0,0,0,0,0,0,0,0,0,0,0,0,0,0,0,0,0,0,0,0,0,0,0,0,0,0,0,0,0,0,0,0,0,0,0,0,0,0,0,0,0,0,0,0,0,0,0,0,0,0,0,0,0,0,0,0,0,0,0,0,0,0,0,0,0,0,0,0,0,0,0,0,0,0,0,0,0,0,0,0,0,0,0,0,0,0,0,0,0,0,0,0,0,0,0,0,0,0,0,0,0,0,0,0,0,0,0,0,0,0,  % Bus 10
  0,608,289,0,274,480,415,187,277,257,229,219,222,190,472,209,380,304,547,423,261,0,102,486,286,570,420,424,357,450,352,373,160,464,156,217,258,242,234,354,278,334,372,397,294,733,0,608,289,0,274,480,415,187,277,257,229,219,222,190,472,209,380,304,547,423,261,0,102,486,286,570,420,424,357,450,352,373,160,464,156,217,258,242,234,354,278,334,372,397,294,733,0,608,289,0,274,480,415,187,277,257,229,219,222,190,472,209,380,304,547,423,261,0,102,486,286,570,420,424,357,450,352,373,160,464,156,217,258,242,234,354,278,334,372,397,294,733,0,608,289,0,274,480,415,187,277,257,229,219,222,190,472,209,380,304,547,423,261,0,102,486,286,570,420,424,357,450,352,373,160,464,156,217,258,242,234,354,278,334,372,397,294,733,0,608,289,0,274,480,415,187,277,257,229,219,222,190,472,209,380,304,547,423,261,0,102,486,286,570,420,424,357,450,352,373,160,464,156,217,258,242,234,354,278,334,372,397,294,733,0,608,289,0,274,480,415,187,277,257,229,219,222,190,472,209,380,304,547,423,261,0,102,486,286,570,420,424,357,450,352,373,160,464,156,217,258,242,234,354,278,334,372,397,294,733,0,608,289,0,274,480,415,187,277,257,229,219,222,190,472,209,380,304,547,423,261,0,102,486,286,570,420,424,357,450,352,373,160,464,156,217,258,242,234,354,278,334,372,397,294,733,0,608,289,0,274,480,415,187,277,257,229,219,222,190,472,209,380,304,547,423,261,0,102,486,286,570,420,424,357,450,352,373,160,464,156,217,258,242,234,354,278,334,372,397,294,733,0,608,289,0,274,480,415,187,277,257,229,219,222,190,472,209,380,304,547,423,261,0,102,486,286,570,420,424,357,450,352,373,160,464,156,217,258,242,234,354,278,334,372,397,294,733,0,608,289,0,274,480,415,187,277,257,229,219,222,190,472,209,380,304,547,423,261,0,102,486,286,570,420,424,357,450,352,373,160,464,156,217,258,242,234,354,278,334,372,397,294,733,0,608,289,0,274,480,415,187,277,257,229,219,222,190,472,209,380,304,547,423,261,0,102,486,286,570,420,424,357,450,352,373,160,464,156,217,258,242,234,354,278,334,372,397,294,733,0,608,289,0,274,480,415,187,277,257,229,219,222,190,472,209,380,304,547,423,261,0,102,486,286,570,420,424,357,450,352,373,160,464,156,217,258,242,234,354,278,334,372,397,294,733,0,608,289,0,274,480,415,187,277,257,229,219,222,190,472,209,380,304,547,423,261,0,102,486,286,570,420,424,357,450,352,373,160,464,156,217,258,242,234,354,278,334,372,397,294,733,0,608,289,0,274,480,415,187,277,257,229,219,222,190,472,209,380,304,547,423,261,0,102,486,286,570,420,424,357,450,352,373,160,464,156,217,258,242,234,354,278,334,372,397,294,733,0,0,0,0,0,0,0,0,0,0,0,0,0,0,0,0,0,0,0,0,0,0,0,0,0,0,0,0,0,  % Bus 11
  0,102,486,286,570,420,424,357,450,352,373,160,464,156,217,258,242,234,354,278,334,372,397,294,733,0,608,289,0,274,480,415,187,277,257,229,219,222,190,472,209,380,304,547,423,261,0,102,486,286,570,420,424,357,450,352,373,160,464,156,217,258,242,234,354,278,334,372,397,294,733,0,608,289,0,274,480,415,187,277,257,229,219,222,190,472,209,380,304,547,423,261,0,102,486,286,570,420,424,357,450,352,373,160,464,156,217,258,242,234,354,278,334,372,397,294,733,0,608,289,0,274,480,415,187,277,257,229,219,222,190,472,209,380,304,547,423,261,0,102,486,286,570,420,424,357,450,352,373,160,464,156,217,258,242,234,354,278,334,372,397,294,733,0,608,289,0,274,480,415,187,277,257,229,219,222,190,472,209,380,304,547,423,261,0,102,486,286,570,420,424,357,450,352,373,160,464,156,217,258,242,234,354,278,334,372,397,294,733,0,608,289,0,274,480,415,187,277,257,229,219,222,190,472,209,380,304,547,423,261,0,102,486,286,570,420,424,357,450,352,373,160,464,156,217,258,242,234,354,278,334,372,397,294,733,0,608,289,0,274,480,415,187,277,257,229,219,222,190,472,209,380,304,547,423,261,0,102,486,286,570,420,424,357,450,352,373,160,464,156,217,258,242,234,354,278,334,372,397,294,733,0,608,289,0,274,480,415,187,277,257,229,219,222,190,472,209,380,304,547,423,261,0,102,486,286,570,420,424,357,450,352,373,160,464,156,217,258,242,234,354,278,334,372,397,294,733,0,608,289,0,274,480,415,187,277,257,229,219,222,190,472,209,380,304,547,423,261,0,102,486,286,570,420,424,357,450,352,373,160,464,156,217,258,242,234,354,278,334,372,397,294,733,0,608,289,0,274,480,415,187,277,257,229,219,222,190,472,209,380,304,547,423,261,0,102,486,286,570,420,424,357,450,352,373,160,464,156,217,258,242,234,354,278,334,372,397,294,733,0,608,289,0,274,480,415,187,277,257,229,219,222,190,472,209,380,304,547,423,261,0,102,486,286,570,420,424,357,450,352,373,160,464,156,217,258,242,234,354,278,334,372,397,294,733,0,608,289,0,274,480,415,187,277,257,229,219,222,190,472,209,380,304,547,423,261,0,102,486,286,570,420,424,357,450,352,373,160,464,156,217,258,242,234,354,278,334,372,397,294,733,0,608,289,0,274,480,415,187,277,257,229,219,222,190,472,209,380,304,547,423,261,0,102,486,286,570,420,424,357,450,352,373,160,464,156,217,258,242,234,354,278,334,372,397,294,733,0,608,289,0,274,480,415,187,277,257,229,219,222,190,472,209,380,304,547,423,261,0,0,0,0,0,0,0,0,0,0,0,0,0,0,0,0,0,0,0,0,0,0,0,0,0,0,0,0,0,0,0,0,0,0,0,0,0,0,0,0,0,0,0,0,0,0,0,0,0,0,0,0,0,0,0,0,0,0,0,0,0,0,0,0,0,0,0,0,0,0,0,0,0,0,0,  % Bus 12
  0,608,289,0,274,480,415,187,277,257,229,219,222,190,472,209,380,304,547,423,261,0,102,486,286,570,420,424,357,450,352,373,160,464,156,217,258,242,234,354,278,334,372,397,294,733,0,608,289,0,274,480,415,187,277,257,229,219,222,190,472,209,380,304,547,423,261,0,102,486,286,570,420,424,357,450,352,373,160,464,156,217,258,242,234,354,278,334,372,397,294,733,0,608,289,0,274,480,415,187,277,257,229,219,222,190,472,209,380,304,547,423,261,0,102,486,286,570,420,424,357,450,352,373,160,464,156,217,258,242,234,354,278,334,372,397,294,733,0,608,289,0,274,480,415,187,277,257,229,219,222,190,472,209,380,304,547,423,261,0,102,486,286,570,420,424,357,450,352,373,160,464,156,217,258,242,234,354,278,334,372,397,294,733,0,608,289,0,274,480,415,187,277,257,229,219,222,190,472,209,380,304,547,423,261,0,102,486,286,570,420,424,357,450,352,373,160,464,156,217,258,242,234,354,278,334,372,397,294,733,0,608,289,0,274,480,415,187,277,257,229,219,222,190,472,209,380,304,547,423,261,0,102,486,286,570,420,424,357,450,352,373,160,464,156,217,258,242,234,354,278,334,372,397,294,733,0,608,289,0,274,480,415,187,277,257,229,219,222,190,472,209,380,304,547,423,261,0,102,486,286,570,420,424,357,450,352,373,160,464,156,217,258,242,234,354,278,334,372,397,294,733,0,608,289,0,274,480,415,187,277,257,229,219,222,190,472,209,380,304,547,423,261,0,102,486,286,570,420,424,357,450,352,373,160,464,156,217,258,242,234,354,278,334,372,397,294,733,0,608,289,0,274,480,415,187,277,257,229,219,222,190,472,209,380,304,547,423,261,0,102,486,286,570,420,424,357,450,352,373,160,464,156,217,258,242,234,354,278,334,372,397,294,733,0,608,289,0,274,480,415,187,277,257,229,219,222,190,472,209,380,304,547,423,261,0,102,486,286,570,420,424,357,450,352,373,160,464,156,217,258,242,234,354,278,334,372,397,294,733,0,608,289,0,274,480,415,187,277,257,229,219,222,190,472,209,380,304,547,423,261,0,102,486,286,570,420,424,357,450,352,373,160,464,156,217,258,242,234,354,278,334,372,397,294,733,0,0,0,0,0,0,0,0,0,0,0,0,0,0,0,0,0,0,0,0,0,0,0,0,0,0,0,0,0,0,0,0,0,0,0,0,0,0,0,0,0,0,0,0,0,0,0,0,0,0,0,0,0,0,0,0,0,0,0,0,0,0,0,0,0,0,0,0,0,0,0,0,0,0,0,0,0,0,0,0,0,0,0,0,0,0,0,0,0,0,0,0,0,0,0,0,0,0,0,0,0,0,0,0,0,0,0,0,0,0,0,0,0,0,0,0,0,0,0,0,0,0,0,0,0,0,0,0,0,0,0,0,0,0,0,0,0,0,0,0,0,0,0,0,0,0,0,0,0,0,0,0,0,0,0,0,0,0,0,0,0,0,0,0,0,0,0,  % Bus 13
  0,608,289,0,274,480,415,187,277,257,229,219,222,190,472,209,380,304,547,423,261,0,102,486,286,570,420,424,357,450,352,373,160,464,156,217,258,242,234,354,278,334,372,397,294,733,0,608,289,0,274,480,415,187,277,257,229,219,222,190,472,209,380,304,547,423,261,0,102,486,286,570,420,424,357,450,352,373,160,464,156,217,258,242,234,354,278,334,372,397,294,733,0,608,289,0,274,480,415,187,277,257,229,219,222,190,472,209,380,304,547,423,261,0,102,486,286,570,420,424,357,450,352,373,160,464,156,217,258,242,234,354,278,334,372,397,294,733,0,608,289,0,274,480,415,187,277,257,229,219,222,190,472,209,380,304,547,423,261,0,102,486,286,570,420,424,357,450,352,373,160,464,156,217,258,242,234,354,278,334,372,397,294,733,0,608,289,0,274,480,415,187,277,257,229,219,222,190,472,209,380,304,547,423,261,0,102,486,286,570,420,424,357,450,352,373,160,464,156,217,258,242,234,354,278,334,372,397,294,733,0,608,289,0,274,480,415,187,277,257,229,219,222,190,472,209,380,304,547,423,261,0,102,486,286,570,420,424,357,450,352,373,160,464,156,217,258,242,234,354,278,334,372,397,294,733,0,608,289,0,274,480,415,187,277,257,229,219,222,190,472,209,380,304,547,423,261,0,102,486,286,570,420,424,357,450,352,373,160,464,156,217,258,242,234,354,278,334,372,397,294,733,0,608,289,0,274,480,415,187,277,257,229,219,222,190,472,209,380,304,547,423,261,0,102,486,286,570,420,424,357,450,352,373,160,464,156,217,258,242,234,354,278,334,372,397,294,733,0,608,289,0,274,480,415,187,277,257,229,219,222,190,472,209,380,304,547,423,261,0,102,486,286,570,420,424,357,450,352,373,160,464,156,217,258,242,234,354,278,334,372,397,294,733,0,608,289,0,274,480,415,187,277,257,229,219,222,190,472,209,380,304,547,423,261,0,0,0,0,0,0,0,0,0,0,0,0,0,0,0,0,0,0,0,0,0,0,0,0,0,0,0,0,0,0,0,0,0,0,0,0,0,0,0,0,0,0,0,0,0,0,0,0,0,0,0,0,0,0,0,0,0,0,0,0,0,0,0,0,0,0,0,0,0,0,0,0,0,0,0,0,0,0,0,0,0,0,0,0,0,0,0,0,0,0,0,0,0,0,0,0,0,0,0,0,0,0,0,0,0,0,0,0,0,0,0,0,0,0,0,0,0,0,0,0,0,0,0,0,0,0,0,0,0,0,0,0,0,0,0,0,0,0,0,0,0,0,0,0,0,0,0,0,0,0,0,0,0,0,0,0,0,0,0,0,0,0,0,0,0,0,0,0,0,0,0,0,0,0,0,0,0,0,0,0,0,0,0,0,0,0,0,0,0,0,0,0,0,0,0,0,0,0,0,0,0,0,0,0,0,0,0,0,0,0,0,0,0,0,0,0,0,0,0,0,0,0,0,0,0,0,0,0,0,0,0,0,0,0,0,0,0,0,  % Bus 14
  0,102,486,286,570,420,424,357,450,352,373,160,464,156,217,258,242,234,354,278,334,372,397,294,733,0,608,289,0,274,480,415,187,277,257,229,219,222,190,472,209,380,304,547,423,261,0,102,486,286,570,420,424,357,450,352,373,160,464,156,217,258,242,234,354,278,334,372,397,294,733,0,608,289,0,274,480,415,187,277,257,229,219,222,190,472,209,380,304,547,423,261,0,102,486,286,570,420,424,357,450,352,373,160,464,156,217,258,242,234,354,278,334,372,397,294,733,0,608,289,0,274,480,415,187,277,257,229,219,222,190,472,209,380,304,547,423,261,0,102,486,286,570,420,424,357,450,352,373,160,464,156,217,258,242,234,354,278,334,372,397,294,733,0,608,289,0,274,480,415,187,277,257,229,219,222,190,472,209,380,304,547,423,261,0,102,486,286,570,420,424,357,450,352,373,160,464,156,217,258,242,234,354,278,334,372,397,294,733,0,608,289,0,274,480,415,187,277,257,229,219,222,190,472,209,380,304,547,423,261,0,102,486,286,570,420,424,357,450,352,373,160,464,156,217,258,242,234,354,278,334,372,397,294,733,0,608,289,0,274,480,415,187,277,257,229,219,222,190,472,209,380,304,547,423,261,0,102,486,286,570,420,424,357,450,352,373,160,464,156,217,258,242,234,354,278,334,372,397,294,733,0,608,289,0,274,480,415,187,277,257,229,219,222,190,472,209,380,304,547,423,261,0,102,486,286,570,420,424,357,450,352,373,160,464,156,217,258,242,234,354,278,334,372,397,294,733,0,608,289,0,274,480,415,187,277,257,229,219,222,190,472,209,380,304,547,423,261,0,0,0,0,0,0,0,0,0,0,0,0,0,0,0,0,0,0,0,0,0,0,0,0,0,0,0,0,0,0,0,0,0,0,0,0,0,0,0,0,0,0,0,0,0,0,0,0,0,0,0,0,0,0,0,0,0,0,0,0,0,0,0,0,0,0,0,0,0,0,0,0,0,0,0,0,0,0,0,0,0,0,0,0,0,0,0,0,0,0,0,0,0,0,0,0,0,0,0,0,0,0,0,0,0,0,0,0,0,0,0,0,0,0,0,0,0,0,0,0,0,0,0,0,0,0,0,0,0,0,0,0,0,0,0,0,0,0,0,0,0,0,0,0,0,0,0,0,0,0,0,0,0,0,0,0,0,0,0,0,0,0,0,0,0,0,0,0,0,0,0,0,0,0,0,0,0,0,0,0,0,0,0,0,0,0,0,0,0,0,0,0,0,0,0,0,0,0,0,0,0,0,0,0,0,0,0,0,0,0,0,0,0,0,0,0,0,0,0,0,0,0,0,0,0,0,0,0,0,0,0,0,0,0,0,0,0,0,0,0,0,0,0,0,0,0,0,0,0,0,0,0,0,0,0,0,0,0,0,0,0,0,0,0,0,0,0,0,0,0,0,0,0,0,0,0,0,0,0,0,0,0,0,0,0,0,0,0,0,0,0,0,0,0,0,0,0,0,0,0,0,0,0,0,0,  % Bus 15
  0,608,289,0,274,480,415,187,277,257,229,219,222,190,472,209,380,304,547,423,261,0,102,486,286,570,420,424,357,450,352,373,160,464,156,217,258,242,234,354,278,334,372,397,294,733,0,608,289,0,274,480,415,187,277,257,229,219,222,190,472,209,380,304,547,423,261,0,102,486,286,570,420,424,357,450,352,373,160,464,156,217,258,242,234,354,278,334,372,397,294,733,0,608,289,0,274,480,415,187,277,257,229,219,222,190,472,209,380,304,547,423,261,0,102,486,286,570,420,424,357,450,352,373,160,464,156,217,258,242,234,354,278,334,372,397,294,733,0,608,289,0,274,480,415,187,277,257,229,219,222,190,472,209,380,304,547,423,261,0,102,486,286,570,420,424,357,450,352,373,160,464,156,217,258,242,234,354,278,334,372,397,294,733,0,0,0,0,0,0,0,0,0,0,0,0,0,0,0,0,0,0,0,0,0,0,0,0,0,0,0,0,0,0,0,0,0,0,0,0,0,0,0,0,0,0,0,0,0,0,0,0,0,0,0,0,0,0,0,0,0,0,0,0,0,0,0,0,0,0,0,0,0,0,0,0,0,0,0,0,0,0,0,0,0,0,0,0,0,0,0,0,0,0,0,0,0,0,0,0,0,0,0,0,0,0,0,0,0,0,0,0,0,0,0,0,0,0,0,0,0,0,0,0,0,0,0,0,0,0,0,0,0,0,0,0,0,0,0,0,0,0,0,0,0,0,0,0,0,0,0,0,0,0,0,0,0,0,0,0,0,0,0,0,0,0,0,0,0,0,0,0,0,0,0,0,0,0,0,0,0,0,0,0,0,0,0,0,0,0,0,0,0,0,0,0,0,0,0,0,0,0,0,0,0,0,0,0,0,0,0,0,0,0,0,0,0,0,0,0,0,0,0,0,0,0,0,0,0,0,0,0,0,0,0,0,0,0,0,0,0,0,0,0,0,0,0,0,0,0,0,0,0,0,0,0,0,0,0,0,0,0,0,0,0,0,0,0,0,0,0,0,0,0,0,0,0,0,0,0,0,0,0,0,0,0,0,0,0,0,0,0,0,0,0,0,0,0,0,0,0,0,0,0,0,0,0,0,0,0,0,0,0,0,0,0,0,0,0,0,0,0,0,0,0,0,0,0,0,0,0,0,0,0,0,0,0,0,0,0,0,0,0,0,0,0,0,0,0,0,0,0,0,0,0,0,0,0,0,0,0,0,0,0,0,0,0,0,0,0,0,0,0,0,0,0,0,0,0,0,0,0,0,0,0,0,0,0,0,0,0,0,0,0,0,0,0,0,0,0,0,0,0,0,0,0,0,0,0,0,0,0,0,0,0,0,0,0,0,0,0,0,0,0,0,0,0,0,0,0,0,0,0,0,0,0,0,0,0,0,0,0,0,0,0,0,0,0,0,0,0,0,0,0,0,0,0,0,0,0,0,0,0,0,0,0,0,0,0,0,0,0,0,0,0,0,0,0,0,0,0,0,0,0,0,0,0,0,0,0,0,0,0  % Bus 16
]);

% --- Travel Time (T) ---
% Time between stops in INTEGER seconds (no scaling)
% Values are written directly in seconds
% Calculated using JITS2022 algorithm: T from schedule deltas
T = array2d(1..16, 1..673, [
  0,60,60,60,60,60,60,60,60,60,60,60,60,60,60,60,60,60,120,60,0,60,60,120,120,60,60,60,60,60,60,60,60,60,60,60,60,60,0,60,60,60,0,60,60,60,60,60,60,60,60,60,60,60,60,60,60,60,60,60,120,60,0,60,60,120,120,60,60,60,60,60,60,60,60,60,60,60,60,60,0,60,60,60,0,60,60,60,60,60,60,60,60,60,60,60,60,60,60,60,60,60,120,60,0,60,60,120,120,60,60,60,60,60,60,60,60,60,60,60,60,60,0,60,60,60,0,60,60,60,60,60,60,60,60,60,60,60,60,60,60,60,60,60,120,60,0,60,60,120,120,60,60,60,60,60,60,60,60,60,60,60,60,60,0,60,60,60,0,60,60,60,60,60,60,60,60,60,60,60,60,60,60,60,60,60,120,60,0,60,60,120,120,60,60,60,60,60,60,60,60,60,60,60,60,60,0,60,60,60,0,60,60,60,60,60,60,60,60,60,60,60,60,60,60,60,60,60,120,60,0,60,60,120,120,60,60,60,60,60,60,60,60,60,60,60,60,60,0,60,60,60,0,60,60,60,60,60,60,60,60,60,60,60,60,60,60,60,60,60,120,60,0,60,60,120,120,60,60,60,60,60,60,60,60,60,60,60,60,60,0,60,60,60,0,60,60,60,60,60,60,60,60,60,60,60,60,60,60,60,60,60,120,60,0,60,60,120,120,60,60,60,60,60,60,60,60,60,60,60,60,60,0,60,60,60,0,60,60,60,60,60,60,60,60,60,60,60,60,60,60,60,60,60,120,60,0,60,60,60,60,60,60,60,60,60,60,60,60,60,60,60,60,60,0,60,60,60,0,60,60,60,60,60,60,60,60,60,60,60,60,60,60,60,60,60,60,60,0,60,60,60,60,60,60,60,60,60,60,60,60,60,60,60,60,60,0,60,60,60,0,60,60,60,60,60,60,60,60,60,60,60,60,60,60,60,60,60,60,60,0,60,60,60,60,60,60,60,60,60,60,60,60,60,60,60,60,60,0,60,60,60,0,60,60,60,60,60,60,60,60,60,60,60,60,60,60,60,60,60,60,60,0,60,60,60,60,60,60,60,60,60,60,60,60,60,60,60,60,60,0,60,60,60,0,60,60,60,60,60,60,60,60,60,60,60,60,60,60,60,60,60,60,60,0,60,60,60,60,60,60,60,60,60,60,60,60,60,60,60,60,60,0,60,60,60,0,60,60,60,60,60,60,60,60,60,60,60,60,60,60,60,60,60,60,60,0,0,0,0,0,0,0,0,0,0,0,0,0,0,0,0,0,0,0,0,0,0,0,0,0,0,0,0,0,0,0,0,0,0,0,0,0,0,0,0,0,0,0,0,0,0,0,0,0,0,0,0,0,0,0,0,0,0,0,0,0,0,0,0,0,0,0,0,0,0,0,0,0,0,0,0,0,0,0,0,0,0,0,0,0,0,0,0,0,0,0,0,0,0,0,0,0,0,0,0,0,0,0,0,0,0,0,  % Bus 1
  0,60,60,60,60,60,60,60,60,60,60,60,60,60,60,60,60,60,0,60,60,60,0,60,60,60,60,60,60,60,60,60,60,60,60,60,60,60,60,60,120,60,0,60,60,120,120,60,60,60,60,60,60,60,60,60,60,60,60,60,0,60,60,60,0,60,60,60,60,60,60,60,60,60,60,60,60,60,60,60,60,60,120,60,0,60,60,120,120,60,60,60,60,60,60,60,60,60,60,60,60,60,0,60,60,60,0,60,60,60,60,60,60,60,60,60,60,60,60,60,60,60,60,60,120,60,0,60,60,120,120,60,60,60,60,60,60,60,60,60,60,60,60,60,0,60,60,60,0,60,60,60,60,60,60,60,60,60,60,60,60,60,60,60,60,60,120,60,0,60,60,120,120,60,60,60,60,60,60,60,60,60,60,60,60,60,0,60,60,60,0,60,60,60,60,60,60,60,60,60,60,60,60,60,60,60,60,60,120,60,0,60,60,120,120,60,60,60,60,60,60,60,60,60,60,60,60,60,0,60,60,60,0,60,60,60,60,60,60,60,60,60,60,60,60,60,60,60,60,60,120,60,0,60,60,120,120,60,60,60,60,60,60,60,60,60,60,60,60,60,0,60,60,60,0,60,60,60,60,60,60,60,60,60,60,60,60,60,60,60,60,60,120,60,0,60,60,120,120,60,60,60,60,60,60,60,60,60,60,60,60,60,0,60,60,60,0,60,60,60,60,60,60,60,60,60,60,60,60,60,60,60,60,60,120,60,0,60,60,120,120,60,60,60,60,60,60,60,60,60,60,60,60,60,0,60,60,60,0,60,60,60,60,60,60,60,60,60,60,60,60,60,60,60,60,60,60,60,0,60,60,60,60,60,60,60,60,60,60,60,60,60,60,60,60,60,0,60,60,60,0,60,60,60,60,60,60,60,60,60,60,60,60,60,60,60,60,60,60,60,0,60,60,60,60,60,60,60,60,60,60,60,60,60,60,60,60,60,0,60,60,60,0,60,60,60,60,60,60,60,60,60,60,60,60,60,60,60,60,60,60,60,0,60,60,60,60,60,60,60,60,60,60,60,60,60,60,60,60,60,0,60,60,60,0,60,60,60,60,60,60,60,60,60,60,60,60,60,60,60,60,60,60,60,0,60,60,60,60,60,60,60,60,60,60,60,60,60,60,60,60,60,0,60,60,60,0,60,60,60,60,60,60,60,60,60,60,60,60,60,60,60,60,60,60,60,0,60,60,60,60,60,60,60,60,60,60,60,60,60,60,60,60,60,0,60,60,60,0,0,0,0,0,0,0,0,0,0,0,0,0,0,0,0,0,0,0,0,0,0,0,0,0,0,0,0,0,0,0,0,0,0,0,0,0,0,0,0,0,0,0,0,0,0,0,0,0,0,0,0,0,0,0,0,0,0,0,0,0,0,0,0,0,0,0,0,0,0,0,0,0,0,0,0,0,0,0,0,0,0,0,0,0,0,0,0,0,0,0,0,0,0,0,0,0,0,0,0,0,0,0,0,0,  % Bus 2
  0,60,60,60,60,60,60,60,60,60,60,60,60,60,60,60,60,60,120,60,0,60,60,120,120,60,60,60,60,60,60,60,60,60,60,60,60,60,0,60,60,60,0,60,60,60,60,60,60,60,60,60,60,60,60,60,60,60,60,60,120,60,0,60,60,120,120,60,60,60,60,60,60,60,60,60,60,60,60,60,0,60,60,60,0,60,60,60,60,60,60,60,60,60,60,60,60,60,60,60,60,60,120,60,0,60,60,120,120,60,60,60,60,60,60,60,60,60,60,60,60,60,0,60,60,60,0,60,60,60,60,60,60,60,60,60,60,60,60,60,60,60,60,60,120,60,0,60,60,120,120,60,60,60,60,60,60,60,60,60,60,60,60,60,0,60,60,60,0,60,60,60,60,60,60,60,60,60,60,60,60,60,60,60,60,60,120,60,0,60,60,120,120,60,60,60,60,60,60,60,60,60,60,60,60,60,0,60,60,60,0,60,60,60,60,60,60,60,60,60,60,60,60,60,60,60,60,60,120,60,0,60,60,120,120,60,60,60,60,60,60,60,60,60,60,60,60,60,0,60,60,60,0,60,60,60,60,60,60,60,60,60,60,60,60,60,60,60,60,60,120,60,0,60,60,120,120,60,60,60,60,60,60,60,60,60,60,60,60,60,0,60,60,60,0,60,60,60,60,60,60,60,60,60,60,60,60,60,60,60,60,60,120,60,0,60,60,120,120,60,60,60,60,60,60,60,60,60,60,60,60,60,0,60,60,60,0,60,60,60,60,60,60,60,60,60,60,60,60,60,60,60,60,60,120,60,0,60,60,60,60,60,60,60,60,60,60,60,60,60,60,60,60,60,0,60,60,60,0,0,0,0,0,0,0,0,0,0,0,0,0,0,0,0,0,0,0,0,0,0,0,0,0,0,0,0,0,0,0,0,0,0,0,0,0,0,0,0,0,0,0,0,0,0,0,0,0,0,0,0,0,0,0,0,0,0,0,0,0,0,0,0,0,0,0,0,0,0,0,0,0,0,0,0,0,0,0,0,0,0,0,0,0,0,0,0,0,0,0,0,0,0,0,0,0,0,0,0,0,0,0,0,0,0,0,0,0,0,0,0,0,0,0,0,0,0,0,0,0,0,0,0,0,0,0,0,0,0,0,0,0,0,0,0,0,0,0,0,0,0,0,0,0,0,0,0,0,0,0,0,0,0,0,0,0,0,0,0,0,0,0,0,0,0,0,0,0,0,0,0,0,0,0,0,0,0,0,0,0,0,0,0,0,0,0,0,0,0,0,0,0,0,0,0,0,0,0,0,0,0,0,0,0,0,0,0,0,0,0,0,0,0,0,0,0,0,0,0,0,0,0,0,0,0,0,0,0,0,0,0,0,0,0,0,0,0,0,0,0,0,0,0,0,0,0,0,0,0,0,0,0,0,0,0,0,0,0,0,0,0,0,0,0,0,0,0,0,0,0,0,0,0,0,0,0,0,0,0,0,0,0,0,0,0,0,0,0,0,0,0,0,0,0,  % Bus 3
  0,60,60,60,60,60,60,60,60,60,60,60,60,60,60,60,60,60,120,60,0,60,60,120,120,60,60,60,60,60,60,60,60,60,60,60,60,60,0,60,60,60,0,60,60,60,60,60,60,60,60,60,60,60,60,60,60,60,60,60,120,60,0,60,60,120,120,60,60,60,60,60,60,60,60,60,60,60,60,60,0,60,60,60,0,60,60,60,60,60,60,60,60,60,60,60,60,60,60,60,60,60,120,60,0,60,60,120,120,60,60,60,60,60,60,60,60,60,60,60,60,60,0,60,60,60,0,60,60,60,60,60,60,60,60,60,60,60,60,60,60,60,60,60,120,60,0,60,60,120,120,60,60,60,60,60,60,60,60,60,60,60,60,60,0,60,60,60,0,60,60,60,60,60,60,60,60,60,60,60,60,60,60,60,60,60,120,60,0,60,60,120,120,60,60,60,60,60,60,60,60,60,60,60,60,60,0,60,60,60,0,60,60,60,60,60,60,60,60,60,60,60,60,60,60,60,60,60,120,60,0,60,60,120,120,60,60,60,60,60,60,60,60,60,60,60,60,60,0,60,60,60,0,60,60,60,60,60,60,60,60,60,60,60,60,60,60,60,60,60,120,60,0,60,60,120,120,60,60,60,60,60,60,60,60,60,60,60,60,60,0,60,60,60,0,60,60,60,60,60,60,60,60,60,60,60,60,60,60,60,60,60,120,60,0,60,60,120,120,60,60,60,60,60,60,60,60,60,60,60,60,60,0,60,60,60,0,60,60,60,60,60,60,60,60,60,60,60,60,60,60,60,60,60,60,60,0,0,0,0,0,0,0,0,0,0,0,0,0,0,0,0,0,0,0,0,0,0,0,0,0,0,0,0,0,0,0,0,0,0,0,0,0,0,0,0,0,0,0,0,0,0,0,0,0,0,0,0,0,0,0,0,0,0,0,0,0,0,0,0,0,0,0,0,0,0,0,0,0,0,0,0,0,0,0,0,0,0,0,0,0,0,0,0,0,0,0,0,0,0,0,0,0,0,0,0,0,0,0,0,0,0,0,0,0,0,0,0,0,0,0,0,0,0,0,0,0,0,0,0,0,0,0,0,0,0,0,0,0,0,0,0,0,0,0,0,0,0,0,0,0,0,0,0,0,0,0,0,0,0,0,0,0,0,0,0,0,0,0,0,0,0,0,0,0,0,0,0,0,0,0,0,0,0,0,0,0,0,0,0,0,0,0,0,0,0,0,0,0,0,0,0,0,0,0,0,0,0,0,0,0,0,0,0,0,0,0,0,0,0,0,0,0,0,0,0,0,0,0,0,0,0,0,0,0,0,0,0,0,0,0,0,0,0,0,0,0,0,0,0,0,0,0,0,0,0,0,0,0,0,0,0,0,0,0,0,0,0,0,0,0,0,0,0,0,0,0,0,0,0,0,0,0,0,0,0,0,0,0,0,0,0,0,0,0,0,0,0,0,0,0,0,0,0,0,0,0,0,0,0,0,0,0,0,0,0,0,0,0,0,0,0,0,  % Bus 4
  0,60,60,60,60,60,60,60,60,60,60,60,60,60,60,60,60,60,60,0,60,60,60,60,60,60,60,60,60,60,60,60,60,60,60,60,60,120,60,60,60,60,60,60,60,60,60,60,60,60,60,60,60,60,60,60,60,120,60,60,60,120,120,60,60,60,60,60,60,60,60,60,60,60,60,60,60,60,120,60,60,60,60,60,60,60,60,60,60,60,60,60,60,60,60,60,60,60,600,60,60,60,60,60,60,60,60,60,60,60,60,60,60,60,60,60,120,60,60,60,60,60,60,60,60,60,60,60,60,60,60,60,60,60,60,60,120,60,60,60,120,120,60,60,60,60,60,60,60,60,60,60,60,60,60,60,60,120,60,60,60,60,60,60,60,60,60,60,60,60,60,60,60,60,60,60,60,600,60,60,60,60,60,60,60,60,60,60,60,60,60,60,60,60,60,120,60,60,60,60,60,60,60,60,60,60,60,60,60,60,60,60,60,60,60,120,60,60,60,120,120,60,60,60,60,60,60,60,60,60,60,60,60,60,60,60,120,60,60,60,60,60,60,60,60,60,60,60,60,60,60,60,60,60,60,60,600,60,60,60,60,60,60,60,60,60,60,60,60,60,60,60,60,60,120,60,60,60,60,60,60,60,60,60,60,60,60,60,60,60,60,60,60,60,120,60,60,60,120,120,60,60,60,60,60,60,60,60,60,60,60,60,60,60,60,120,60,60,60,60,60,60,60,60,60,60,60,60,60,60,60,60,60,60,60,600,60,60,60,60,60,60,60,60,60,60,60,60,60,60,60,60,60,120,60,60,60,60,60,60,60,60,60,60,60,60,60,60,60,60,60,60,60,120,60,60,60,120,120,60,60,60,60,60,60,60,60,60,60,60,60,60,60,60,120,60,60,60,60,60,60,60,60,60,60,60,60,60,60,60,60,60,60,60,600,60,60,60,60,60,60,60,60,60,60,60,60,60,60,60,60,60,120,60,60,60,60,60,60,60,60,60,60,60,60,60,60,60,60,60,60,60,120,60,60,60,120,120,60,60,60,60,60,60,60,60,60,60,60,60,60,60,60,120,60,60,60,60,60,60,60,60,60,60,60,60,60,60,60,60,60,60,60,600,60,60,60,60,60,60,60,60,60,60,60,60,60,60,60,60,60,120,60,60,60,60,60,60,60,60,60,60,60,60,60,60,60,60,60,60,60,60,60,60,60,120,120,60,60,60,60,60,60,60,60,60,60,60,60,60,60,60,120,60,60,60,60,60,60,60,60,60,60,60,60,60,60,60,60,60,60,60,600,60,60,60,60,60,60,60,60,60,60,60,60,60,60,60,60,60,120,60,60,60,60,60,60,60,60,60,60,60,60,60,60,60,60,60,60,60,60,60,60,60,120,120,60,60,60,60,60,60,60,60,60,60,60,60,60,60,60,120,60,60,60,60,60,60,60,60,60,60,60,60,60,60,60,60,60,60,60,600,60,60,60,60,60,60,60,60,60,60,60,60,60,60,60,60,60,120,0,0,0,  % Bus 5
  0,60,60,60,60,60,60,60,60,60,60,60,60,60,60,60,60,60,60,120,60,60,60,120,120,60,60,60,60,60,60,60,60,60,60,60,60,60,60,60,120,60,60,60,60,60,60,60,60,60,60,60,60,60,60,60,60,60,60,60,0,60,60,60,60,60,60,60,60,60,60,60,60,60,60,60,60,60,120,60,60,60,60,60,60,60,60,60,60,60,60,60,60,60,60,60,60,60,120,60,60,660,120,120,60,60,60,60,60,60,60,60,60,60,60,60,60,60,60,120,60,60,60,60,60,60,60,60,60,60,60,60,60,60,60,60,60,60,60,0,60,60,60,60,60,60,60,60,60,60,60,60,60,60,60,60,60,120,60,60,60,60,60,60,60,60,60,60,60,60,60,60,60,60,60,60,60,120,60,60,660,120,120,60,60,60,60,60,60,60,60,60,60,60,60,60,60,60,120,60,60,60,60,60,60,60,60,60,60,60,60,60,60,60,60,60,60,60,0,60,60,60,60,60,60,60,60,60,60,60,60,60,60,60,60,60,120,60,60,60,60,60,60,60,60,60,60,60,60,60,60,60,60,60,60,60,120,60,60,660,120,120,60,60,60,60,60,60,60,60,60,60,60,60,60,60,60,120,60,60,60,60,60,60,60,60,60,60,60,60,60,60,60,60,60,60,60,0,60,60,60,60,60,60,60,60,60,60,60,60,60,60,60,60,60,120,60,60,60,60,60,60,60,60,60,60,60,60,60,60,60,60,60,60,60,120,60,60,660,120,120,60,60,60,60,60,60,60,60,60,60,60,60,60,60,60,120,60,60,60,60,60,60,60,60,60,60,60,60,60,60,60,60,60,60,60,0,60,60,60,60,60,60,60,60,60,60,60,60,60,60,60,60,60,120,60,60,60,60,60,60,60,60,60,60,60,60,60,60,60,60,60,60,60,120,60,60,660,120,120,60,60,60,60,60,60,60,60,60,60,60,60,60,60,60,120,60,60,60,60,60,60,60,60,60,60,60,60,60,60,60,60,60,60,60,0,60,60,60,60,60,60,60,60,60,60,60,60,60,60,60,60,60,120,420,60,60,60,60,60,60,60,60,60,60,60,60,60,60,60,60,60,120,60,60,60,60,60,60,60,60,60,60,60,60,60,60,60,60,60,60,60,60,60,60,660,120,120,60,60,60,60,60,60,60,60,60,60,60,60,60,60,60,120,60,60,60,60,60,60,60,60,60,60,60,60,60,60,60,60,60,60,60,0,60,60,60,60,60,60,60,60,60,60,60,60,60,60,60,60,60,120,60,60,60,60,60,60,60,60,60,60,60,60,60,60,60,60,60,60,60,60,60,60,660,120,120,60,60,60,60,60,60,60,60,60,60,60,60,60,60,60,120,60,60,60,60,60,60,60,60,60,60,60,60,60,60,60,60,60,60,60,0,60,60,60,60,60,60,60,60,60,60,60,60,60,60,60,60,60,120,60,60,60,60,60,60,60,60,60,60,60,60,60,60,60,60,60,60,60,60,60,60,  % Bus 6
  0,60,60,60,60,60,60,60,60,60,60,60,60,60,60,60,60,60,60,0,60,60,60,60,60,60,60,60,60,60,60,60,60,60,60,60,60,120,60,60,60,60,60,60,60,60,60,60,60,60,60,60,60,60,60,60,60,120,60,60,60,120,120,60,60,60,60,60,60,60,60,60,60,60,60,60,60,60,120,60,60,60,60,60,60,60,60,60,60,60,60,60,60,60,60,60,60,60,600,60,60,60,60,60,60,60,60,60,60,60,60,60,60,60,60,60,120,60,60,60,60,60,60,60,60,60,60,60,60,60,60,60,60,60,60,60,120,60,60,60,120,120,60,60,60,60,60,60,60,60,60,60,60,60,60,60,60,120,60,60,60,60,60,60,60,60,60,60,60,60,60,60,60,60,60,60,60,600,60,60,60,60,60,60,60,60,60,60,60,60,60,60,60,60,60,120,60,60,60,60,60,60,60,60,60,60,60,60,60,60,60,60,60,60,60,120,60,60,60,120,120,60,60,60,60,60,60,60,60,60,60,60,60,60,60,60,120,60,60,60,60,60,60,60,60,60,60,60,60,60,60,60,60,60,60,60,600,60,60,60,60,60,60,60,60,60,60,60,60,60,60,60,60,60,120,60,60,60,60,60,60,60,60,60,60,60,60,60,60,60,60,60,60,60,120,60,60,60,120,120,60,60,60,60,60,60,60,60,60,60,60,60,60,60,60,120,60,60,60,60,60,60,60,60,60,60,60,60,60,60,60,60,60,60,60,600,60,60,60,60,60,60,60,60,60,60,60,60,60,60,60,60,60,120,60,60,60,60,60,60,60,60,60,60,60,60,60,60,60,60,60,60,60,120,60,60,60,120,120,60,60,60,60,60,60,60,60,60,60,60,60,60,60,60,120,60,60,60,60,60,60,60,60,60,60,60,60,60,60,60,60,60,60,60,600,60,60,60,60,60,60,60,60,60,60,60,60,60,60,60,60,60,120,60,60,60,60,60,60,60,60,60,60,60,60,60,60,60,60,60,60,60,120,60,60,60,120,120,60,60,60,60,60,60,60,60,60,60,60,60,60,60,60,120,60,60,60,60,60,60,60,60,60,60,60,60,60,60,60,60,60,60,60,600,60,60,60,60,60,60,60,60,60,60,60,60,60,60,60,60,60,120,60,60,60,60,60,60,60,60,60,60,60,60,60,60,60,60,60,60,60,60,60,60,60,120,120,60,60,60,60,60,60,60,60,60,60,60,60,60,60,60,120,60,60,60,60,60,60,60,60,60,60,60,60,60,60,60,60,60,60,60,600,60,60,60,60,60,60,60,60,60,60,60,60,60,60,60,60,60,120,60,60,60,60,60,60,60,60,60,60,60,60,60,60,60,60,60,60,60,60,60,60,60,120,120,60,60,60,60,60,60,60,60,60,60,60,60,60,60,60,120,60,60,60,60,60,60,60,60,60,60,60,60,60,60,60,60,60,60,60,0,0,0,0,0,0,0,0,0,0,0,0,0,0,0,0,0,0,0,0,0,0,  % Bus 7
  0,60,60,60,60,60,60,60,60,60,60,60,60,60,60,60,60,60,60,120,60,60,60,120,120,60,60,60,60,60,60,60,60,60,60,60,60,60,60,60,120,60,60,60,60,60,60,60,60,60,60,60,60,60,60,60,60,60,60,60,0,60,60,60,60,60,60,60,60,60,60,60,60,60,60,60,60,60,120,60,60,60,60,60,60,60,60,60,60,60,60,60,60,60,60,60,60,60,120,60,60,660,120,120,60,60,60,60,60,60,60,60,60,60,60,60,60,60,60,120,60,60,60,60,60,60,60,60,60,60,60,60,60,60,60,60,60,60,60,0,60,60,60,60,60,60,60,60,60,60,60,60,60,60,60,60,60,120,60,60,60,60,60,60,60,60,60,60,60,60,60,60,60,60,60,60,60,120,60,60,660,120,120,60,60,60,60,60,60,60,60,60,60,60,60,60,60,60,120,60,60,60,60,60,60,60,60,60,60,60,60,60,60,60,60,60,60,60,0,60,60,60,60,60,60,60,60,60,60,60,60,60,60,60,60,60,120,60,60,60,60,60,60,60,60,60,60,60,60,60,60,60,60,60,60,60,120,60,60,660,120,120,60,60,60,60,60,60,60,60,60,60,60,60,60,60,60,120,60,60,60,60,60,60,60,60,60,60,60,60,60,60,60,60,60,60,60,0,60,60,60,60,60,60,60,60,60,60,60,60,60,60,60,60,60,120,60,60,60,60,60,60,60,60,60,60,60,60,60,60,60,60,60,60,60,120,60,60,660,120,120,60,60,60,60,60,60,60,60,60,60,60,60,60,60,60,120,60,60,60,60,60,60,60,60,60,60,60,60,60,60,60,60,60,60,60,0,60,60,60,60,60,60,60,60,60,60,60,60,60,60,60,60,60,120,60,60,60,60,60,60,60,60,60,60,60,60,60,60,60,60,60,60,60,120,60,60,660,120,120,60,60,60,60,60,60,60,60,60,60,60,60,60,60,60,120,60,60,60,60,60,60,60,60,60,60,60,60,60,60,60,60,60,60,60,0,60,60,60,60,60,60,60,60,60,60,60,60,60,60,60,60,60,120,60,60,60,60,60,60,60,60,60,60,60,60,60,60,60,60,60,60,60,60,60,60,660,120,120,60,60,60,60,60,60,60,60,60,60,60,60,60,60,60,120,60,60,60,60,60,60,60,60,60,60,60,60,60,60,60,60,60,60,60,0,60,60,60,60,60,60,60,60,60,60,60,60,60,60,60,60,60,120,60,60,60,60,60,60,60,60,60,60,60,60,60,60,60,60,60,60,60,60,60,60,660,120,120,60,60,60,60,60,60,60,60,60,60,60,60,60,60,60,120,60,60,60,60,60,60,60,60,60,60,60,60,60,60,60,60,60,60,60,0,60,60,60,60,60,60,60,60,60,60,60,60,60,60,60,60,60,120,60,60,60,60,60,60,60,60,60,60,60,60,60,60,60,60,60,60,60,60,60,60,660,120,120,60,60,60,60,60,60,60,60,60,60,60,60,60,60,60,120,  % Bus 8
  0,60,60,60,60,60,60,60,60,60,60,60,60,60,60,60,60,60,60,120,60,60,60,120,120,60,60,60,60,60,60,60,60,60,60,60,60,60,60,60,120,60,60,60,60,60,60,60,60,60,60,60,60,60,60,60,60,60,60,60,0,60,60,60,60,60,60,60,60,60,60,60,60,60,60,60,60,60,120,60,60,60,60,60,60,60,60,60,60,60,60,60,60,60,60,60,60,60,120,60,60,660,120,120,60,60,60,60,60,60,60,60,60,60,60,60,60,60,60,120,60,60,60,60,60,60,60,60,60,60,60,60,60,60,60,60,60,60,60,0,60,60,60,60,60,60,60,60,60,60,60,60,60,60,60,60,60,120,60,60,60,60,60,60,60,60,60,60,60,60,60,60,60,60,60,60,60,120,60,60,660,120,120,60,60,60,60,60,60,60,60,60,60,60,60,60,60,60,120,60,60,60,60,60,60,60,60,60,60,60,60,60,60,60,60,60,60,60,0,60,60,60,60,60,60,60,60,60,60,60,60,60,60,60,60,60,120,60,60,60,60,60,60,60,60,60,60,60,60,60,60,60,60,60,60,60,120,60,60,660,120,120,60,60,60,60,60,60,60,60,60,60,60,60,60,60,60,120,60,60,60,60,60,60,60,60,60,60,60,60,60,60,60,60,60,60,60,0,60,60,60,60,60,60,60,60,60,60,60,60,60,60,60,60,60,120,60,60,60,60,60,60,60,60,60,60,60,60,60,60,60,60,60,60,60,120,60,60,660,120,120,60,60,60,60,60,60,60,60,60,60,60,60,60,60,60,120,60,60,60,60,60,60,60,60,60,60,60,60,60,60,60,60,60,60,60,0,60,60,60,60,60,60,60,60,60,60,60,60,60,60,60,60,60,120,60,60,60,60,60,60,60,60,60,60,60,60,60,60,60,60,60,60,60,120,60,60,660,120,120,60,60,60,60,60,60,60,60,60,60,60,60,60,60,60,120,0,0,0,0,0,0,0,0,0,0,0,0,0,0,0,0,0,0,0,0,0,0,0,0,0,0,0,0,0,0,0,0,0,0,0,0,0,0,0,0,0,0,0,0,0,0,0,0,0,0,0,0,0,0,0,0,0,0,0,0,0,0,0,0,0,0,0,0,0,0,0,0,0,0,0,0,0,0,0,0,0,0,0,0,0,0,0,0,0,0,0,0,0,0,0,0,0,0,0,0,0,0,0,0,0,0,0,0,0,0,0,0,0,0,0,0,0,0,0,0,0,0,0,0,0,0,0,0,0,0,0,0,0,0,0,0,0,0,0,0,0,0,0,0,0,0,0,0,0,0,0,0,0,0,0,0,0,0,0,0,0,0,0,0,0,0,0,0,0,0,0,0,0,0,0,0,0,0,0,0,0,0,0,0,0,0,0,0,0,0,0,0,0,0,0,0,0,0,0,0,0,0,0,0,0,0,0,0,0,0,0,0,0,0,0,0,0,0,0,0,0,0,0,0,0,0,0,0,0,0,0,0,0,0,0,0,0,  % Bus 9
  0,120,120,60,60,60,60,60,60,60,60,60,60,60,60,60,60,60,120,60,60,60,60,60,60,60,60,60,60,60,60,60,60,60,60,60,60,60,0,60,60,60,60,60,60,60,60,60,60,60,60,60,60,60,60,60,120,60,60,60,60,60,60,60,60,60,60,60,60,60,60,60,60,60,60,60,120,60,60,60,120,120,60,60,60,60,60,60,60,60,60,60,60,60,60,60,60,120,60,60,60,60,60,60,60,60,60,60,60,60,60,60,60,60,60,60,60,600,60,60,60,60,60,60,60,60,60,60,60,60,60,60,60,60,60,120,60,60,60,60,60,60,60,60,60,60,60,60,60,60,60,60,60,60,60,120,60,60,60,120,120,60,60,60,60,60,60,60,60,60,60,60,60,60,60,60,120,60,60,60,60,60,60,60,60,60,60,60,60,60,60,60,60,60,60,60,600,60,60,60,60,60,60,60,60,60,60,60,60,60,60,60,60,60,120,60,60,60,60,60,60,60,60,60,60,60,60,60,60,60,60,60,60,60,120,60,60,60,120,120,60,60,60,60,60,60,60,60,60,60,60,60,60,60,60,120,60,60,60,60,60,60,60,60,60,60,60,60,60,60,60,60,60,60,60,600,60,60,60,60,60,60,60,60,60,60,60,60,60,60,60,60,60,120,60,60,60,60,60,60,60,60,60,60,60,60,60,60,60,60,60,60,60,120,60,60,60,120,120,60,60,60,60,60,60,60,60,60,60,60,60,60,60,60,120,60,60,60,60,60,60,60,60,60,60,60,60,60,60,60,60,60,60,60,600,60,60,60,60,60,60,60,60,60,60,60,60,60,60,60,60,60,120,60,60,60,60,60,60,60,60,60,60,60,60,60,60,60,60,60,60,60,120,60,60,60,120,120,60,60,60,60,60,60,60,60,60,60,60,60,60,60,60,120,60,60,60,60,60,60,60,60,60,60,60,60,60,60,60,60,60,60,60,0,0,0,0,0,0,0,0,0,0,0,0,0,0,0,0,0,0,0,0,0,0,0,0,0,0,0,0,0,0,0,0,0,0,0,0,0,0,0,0,0,0,0,0,0,0,0,0,0,0,0,0,0,0,0,0,0,0,0,0,0,0,0,0,0,0,0,0,0,0,0,0,0,0,0,0,0,0,0,0,0,0,0,0,0,0,0,0,0,0,0,0,0,0,0,0,0,0,0,0,0,0,0,0,0,0,0,0,0,0,0,0,0,0,0,0,0,0,0,0,0,0,0,0,0,0,0,0,0,0,0,0,0,0,0,0,0,0,0,0,0,0,0,0,0,0,0,0,0,0,0,0,0,0,0,0,0,0,0,0,0,0,0,0,0,0,0,0,0,0,0,0,0,0,0,0,0,0,0,0,0,0,0,0,0,0,0,0,0,0,0,0,0,0,0,0,0,0,0,0,0,0,0,0,0,0,0,0,0,0,0,0,0,0,0,0,0,0,0,0,0,0,0,0,0,0,0,0,0,0,0,0,0,0,0,0,0,0,0,0,  % Bus 10
  0,120,60,0,60,60,60,60,60,60,60,60,60,60,60,60,60,60,60,60,60,0,60,60,60,60,60,60,60,60,60,60,60,60,60,60,60,60,60,60,60,60,60,60,60,120,0,120,60,0,60,60,60,60,60,60,60,60,60,60,60,60,60,60,60,60,60,0,60,60,60,120,60,60,60,60,60,60,60,60,60,60,60,60,60,60,60,60,60,60,60,120,600,120,60,0,60,60,60,60,60,60,60,60,60,60,60,60,60,60,60,60,60,0,60,60,60,60,60,60,60,60,60,60,60,60,60,60,60,60,60,60,60,60,60,60,60,120,0,120,60,0,60,60,60,60,60,60,60,60,60,60,60,60,60,60,60,60,60,600,60,60,60,60,60,60,60,60,60,60,60,60,60,60,60,60,60,60,60,60,60,60,60,120,0,120,60,0,60,60,60,60,60,60,60,60,60,60,60,60,60,60,60,60,60,0,60,60,60,60,60,60,60,60,60,60,60,60,60,60,60,60,60,60,60,60,60,60,60,120,600,120,60,0,60,60,60,60,60,60,60,60,60,60,60,60,60,60,60,60,60,0,60,60,60,60,60,60,60,60,60,60,60,60,60,60,60,60,60,60,60,60,60,60,60,120,0,120,60,0,60,60,60,60,60,60,60,60,60,60,60,60,60,60,60,60,60,600,60,60,60,60,60,60,60,60,60,60,60,60,60,60,60,60,60,60,60,60,60,60,60,120,0,120,60,0,60,60,60,60,60,60,60,60,60,60,60,60,60,60,60,60,60,0,60,60,60,60,60,60,60,60,60,60,60,60,60,60,60,60,60,60,60,60,60,60,60,120,600,120,60,0,60,60,60,60,60,60,60,60,60,60,60,60,60,60,60,60,60,0,60,60,60,60,60,60,60,60,60,60,60,60,60,60,60,60,60,60,60,60,60,60,60,120,0,120,60,0,60,60,60,60,60,60,60,60,60,60,60,60,60,60,60,60,60,600,60,60,60,60,60,60,60,60,60,60,60,60,60,60,60,60,60,60,60,60,60,60,60,120,0,120,60,0,60,60,60,60,60,60,60,60,60,60,60,60,60,60,60,60,60,0,60,60,60,60,60,60,60,60,60,60,60,60,60,60,60,60,60,60,60,60,60,60,60,120,600,120,60,0,60,60,60,60,60,60,60,60,60,60,60,60,60,60,60,60,60,0,60,60,60,60,60,60,60,60,60,60,60,60,60,60,60,60,60,60,60,60,60,60,60,120,0,120,60,0,60,60,60,60,60,60,60,60,60,60,60,60,60,60,60,60,60,600,60,60,60,60,60,60,60,60,60,60,60,60,60,60,60,60,60,60,60,60,60,60,60,120,0,120,60,0,60,60,60,60,60,60,60,60,60,60,60,60,60,60,60,60,60,0,60,60,60,60,60,60,60,60,60,60,60,60,60,60,60,60,60,60,60,60,60,60,60,120,0,0,0,0,0,0,0,0,0,0,0,0,0,0,0,0,0,0,0,0,0,0,0,0,0,0,0,0,0,  % Bus 11
  0,60,60,60,60,60,60,60,60,60,60,60,60,60,60,60,60,60,60,60,60,60,60,60,120,0,120,60,0,60,60,60,60,60,60,60,60,60,60,60,60,60,60,60,60,60,0,60,60,60,120,60,60,60,60,60,60,60,60,60,60,60,60,60,60,60,60,60,60,60,120,0,120,60,0,60,60,60,60,60,60,60,60,60,60,60,60,60,60,60,60,60,600,60,60,60,60,60,60,60,60,60,60,60,60,60,60,60,60,60,60,60,60,60,60,60,120,0,120,60,0,60,60,60,60,60,60,60,60,60,60,60,60,60,60,60,60,60,0,60,60,60,60,60,60,60,60,60,60,60,60,60,60,60,60,60,60,60,60,60,60,60,120,600,120,60,0,60,60,60,60,60,60,60,60,60,60,60,60,60,60,60,60,60,0,60,60,60,60,60,60,60,60,60,60,60,60,60,60,60,60,60,60,60,60,60,60,60,120,0,120,60,0,60,60,60,60,60,60,60,60,60,60,60,60,60,60,60,60,60,600,60,60,60,60,60,60,60,60,60,60,60,60,60,60,60,60,60,60,60,60,60,60,60,120,0,120,60,0,60,60,60,60,60,60,60,60,60,60,60,60,60,60,60,60,60,0,60,60,60,60,60,60,60,60,60,60,60,60,60,60,60,60,60,60,60,60,60,60,60,120,600,120,60,0,60,60,60,60,60,60,60,60,60,60,60,60,60,60,60,60,60,0,60,60,60,60,60,60,60,60,60,60,60,60,60,60,60,60,60,60,60,60,60,60,60,120,0,120,60,0,60,60,60,60,60,60,60,60,60,60,60,60,60,60,60,60,60,600,60,60,60,60,60,60,60,60,60,60,60,60,60,60,60,60,60,60,60,60,60,60,60,120,0,120,60,0,60,60,60,60,60,60,60,60,60,60,60,60,60,60,60,60,60,0,60,60,60,60,60,60,60,60,60,60,60,60,60,60,60,60,60,60,60,60,60,60,60,120,600,120,60,0,60,60,60,60,60,60,60,60,60,60,60,60,60,60,60,60,60,0,60,60,60,60,60,60,60,60,60,60,60,60,60,60,60,60,60,60,60,60,60,60,60,120,0,120,60,0,60,60,60,60,60,60,60,60,60,60,60,60,60,60,60,60,60,600,60,60,60,60,60,60,60,60,60,60,60,60,60,60,60,60,60,60,60,60,60,60,60,120,0,120,60,0,60,60,60,60,60,60,60,60,60,60,60,60,60,60,60,60,60,0,60,60,60,60,60,60,60,60,60,60,60,60,60,60,60,60,60,60,60,60,60,60,60,120,600,120,60,0,60,60,60,60,60,60,60,60,60,60,60,60,60,60,60,60,60,0,0,0,0,0,0,0,0,0,0,0,0,0,0,0,0,0,0,0,0,0,0,0,0,0,0,0,0,0,0,0,0,0,0,0,0,0,0,0,0,0,0,0,0,0,0,0,0,0,0,0,0,0,0,0,0,0,0,0,0,0,0,0,0,0,0,0,0,0,0,0,0,0,0,0,  % Bus 12
  0,120,60,0,60,60,60,60,60,60,60,60,60,60,60,60,60,60,60,60,60,0,60,60,60,60,60,60,60,60,60,60,60,60,60,60,60,60,60,60,60,60,60,60,60,120,0,120,60,0,60,60,60,60,60,60,60,60,60,60,60,60,60,60,60,60,60,0,60,60,60,120,60,60,60,60,60,60,60,60,60,60,60,60,60,60,60,60,60,60,60,120,600,120,60,0,60,60,60,60,60,60,60,60,60,60,60,60,60,60,60,60,60,0,60,60,60,60,60,60,60,60,60,60,60,60,60,60,60,60,60,60,60,60,60,60,60,120,0,120,60,0,60,60,60,60,60,60,60,60,60,60,60,60,60,60,60,60,60,600,60,60,60,60,60,60,60,60,60,60,60,60,60,60,60,60,60,60,60,60,60,60,60,120,0,120,60,0,60,60,60,60,60,60,60,60,60,60,60,60,60,60,60,60,60,0,60,60,60,60,60,60,60,60,60,60,60,60,60,60,60,60,60,60,60,60,60,60,60,120,600,120,60,0,60,60,60,60,60,60,60,60,60,60,60,60,60,60,60,60,60,0,60,60,60,60,60,60,60,60,60,60,60,60,60,60,60,60,60,60,60,60,60,60,60,120,0,120,60,0,60,60,60,60,60,60,60,60,60,60,60,60,60,60,60,60,60,600,60,60,60,60,60,60,60,60,60,60,60,60,60,60,60,60,60,60,60,60,60,60,60,120,0,120,60,0,60,60,60,60,60,60,60,60,60,60,60,60,60,60,60,60,60,0,60,60,60,60,60,60,60,60,60,60,60,60,60,60,60,60,60,60,60,60,60,60,60,120,600,120,60,0,60,60,60,60,60,60,60,60,60,60,60,60,60,60,60,60,60,0,60,60,60,60,60,60,60,60,60,60,60,60,60,60,60,60,60,60,60,60,60,60,60,120,0,120,60,0,60,60,60,60,60,60,60,60,60,60,60,60,60,60,60,60,60,600,60,60,60,60,60,60,60,60,60,60,60,60,60,60,60,60,60,60,60,60,60,60,60,120,0,120,60,0,60,60,60,60,60,60,60,60,60,60,60,60,60,60,60,60,60,0,60,60,60,60,60,60,60,60,60,60,60,60,60,60,60,60,60,60,60,60,60,60,60,120,0,0,0,0,0,0,0,0,0,0,0,0,0,0,0,0,0,0,0,0,0,0,0,0,0,0,0,0,0,0,0,0,0,0,0,0,0,0,0,0,0,0,0,0,0,0,0,0,0,0,0,0,0,0,0,0,0,0,0,0,0,0,0,0,0,0,0,0,0,0,0,0,0,0,0,0,0,0,0,0,0,0,0,0,0,0,0,0,0,0,0,0,0,0,0,0,0,0,0,0,0,0,0,0,0,0,0,0,0,0,0,0,0,0,0,0,0,0,0,0,0,0,0,0,0,0,0,0,0,0,0,0,0,0,0,0,0,0,0,0,0,0,0,0,0,0,0,0,0,0,0,0,0,0,0,0,0,0,0,0,0,0,0,0,0,0,0,  % Bus 13
  0,120,60,0,60,60,60,60,60,60,60,60,60,60,60,60,60,60,60,60,60,0,60,60,60,60,60,60,60,60,60,60,60,60,60,60,60,60,60,60,60,60,60,60,60,120,0,120,60,0,60,60,60,60,60,60,60,60,60,60,60,60,60,60,60,60,60,0,60,60,60,60,60,60,60,60,60,60,60,60,60,60,60,60,60,60,60,60,60,60,60,120,600,120,60,0,60,60,60,60,60,60,60,60,60,60,60,60,60,60,60,60,60,0,60,60,60,60,60,60,60,60,60,60,60,60,60,60,60,60,60,60,60,60,60,60,60,120,0,120,60,0,60,60,60,60,60,60,60,60,60,60,60,60,60,60,60,60,60,600,60,60,60,60,60,60,60,60,60,60,60,60,60,60,60,60,60,60,60,60,60,60,60,120,0,120,60,0,60,60,60,60,60,60,60,60,60,60,60,60,60,60,60,60,60,0,60,60,60,60,60,60,60,60,60,60,60,60,60,60,60,60,60,60,60,60,60,60,60,120,600,120,60,0,60,60,60,60,60,60,60,60,60,60,60,60,60,60,60,60,60,0,60,60,60,60,60,60,60,60,60,60,60,60,60,60,60,60,60,60,60,60,60,60,60,120,0,120,60,0,60,60,60,60,60,60,60,60,60,60,60,60,60,60,60,60,60,600,60,60,60,60,60,60,60,60,60,60,60,60,60,60,60,60,60,60,60,60,60,60,60,120,0,120,60,0,60,60,60,60,60,60,60,60,60,60,60,60,60,60,60,60,60,0,60,60,60,60,60,60,60,60,60,60,60,60,60,60,60,60,60,60,60,60,60,60,60,120,600,120,60,0,60,60,60,60,60,60,60,60,60,60,60,60,60,60,60,60,60,0,60,60,60,60,60,60,60,60,60,60,60,60,60,60,60,60,60,60,60,60,60,60,60,120,0,120,60,0,60,60,60,60,60,60,60,60,60,60,60,60,60,60,60,60,60,0,0,0,0,0,0,0,0,0,0,0,0,0,0,0,0,0,0,0,0,0,0,0,0,0,0,0,0,0,0,0,0,0,0,0,0,0,0,0,0,0,0,0,0,0,0,0,0,0,0,0,0,0,0,0,0,0,0,0,0,0,0,0,0,0,0,0,0,0,0,0,0,0,0,0,0,0,0,0,0,0,0,0,0,0,0,0,0,0,0,0,0,0,0,0,0,0,0,0,0,0,0,0,0,0,0,0,0,0,0,0,0,0,0,0,0,0,0,0,0,0,0,0,0,0,0,0,0,0,0,0,0,0,0,0,0,0,0,0,0,0,0,0,0,0,0,0,0,0,0,0,0,0,0,0,0,0,0,0,0,0,0,0,0,0,0,0,0,0,0,0,0,0,0,0,0,0,0,0,0,0,0,0,0,0,0,0,0,0,0,0,0,0,0,0,0,0,0,0,0,0,0,0,0,0,0,0,0,0,0,0,0,0,0,0,0,0,0,0,0,0,0,0,0,0,0,0,0,0,0,0,0,0,0,0,0,0,0,  % Bus 14
  0,60,60,60,60,60,60,60,60,60,60,60,60,60,60,60,60,60,60,60,60,60,60,60,120,0,120,60,0,60,60,60,60,60,60,60,60,60,60,60,60,60,60,60,60,60,0,60,60,60,60,60,60,60,60,60,60,60,60,60,60,60,60,60,60,60,60,60,60,60,120,0,120,60,0,60,60,60,60,60,60,60,60,60,60,60,60,60,60,60,60,60,600,60,60,60,60,60,60,60,60,60,60,60,60,60,60,60,60,60,60,60,60,60,60,60,120,0,120,60,0,60,60,60,60,60,60,60,60,60,60,60,60,60,60,60,60,60,0,60,60,60,60,60,60,60,60,60,60,60,60,60,60,60,60,60,60,60,60,60,60,60,120,600,120,60,0,60,60,60,60,60,60,60,60,60,60,60,60,60,60,60,60,60,0,60,60,60,60,60,60,60,60,60,60,60,60,60,60,60,60,60,60,60,60,60,60,60,120,0,120,60,0,60,60,60,60,60,60,60,60,60,60,60,60,60,60,60,60,60,600,60,60,60,60,60,60,60,60,60,60,60,60,60,60,60,60,60,60,60,60,60,60,60,120,0,120,60,0,60,60,60,60,60,60,60,60,60,60,60,60,60,60,60,60,60,0,60,60,60,60,60,60,60,60,60,60,60,60,60,60,60,60,60,60,60,60,60,60,60,120,600,120,60,0,60,60,60,60,60,60,60,60,60,60,60,60,60,60,60,60,60,0,60,60,60,60,60,60,60,60,60,60,60,60,60,60,60,60,60,60,60,60,60,60,60,120,0,120,60,0,60,60,60,60,60,60,60,60,60,60,60,60,60,60,60,60,60,0,0,0,0,0,0,0,0,0,0,0,0,0,0,0,0,0,0,0,0,0,0,0,0,0,0,0,0,0,0,0,0,0,0,0,0,0,0,0,0,0,0,0,0,0,0,0,0,0,0,0,0,0,0,0,0,0,0,0,0,0,0,0,0,0,0,0,0,0,0,0,0,0,0,0,0,0,0,0,0,0,0,0,0,0,0,0,0,0,0,0,0,0,0,0,0,0,0,0,0,0,0,0,0,0,0,0,0,0,0,0,0,0,0,0,0,0,0,0,0,0,0,0,0,0,0,0,0,0,0,0,0,0,0,0,0,0,0,0,0,0,0,0,0,0,0,0,0,0,0,0,0,0,0,0,0,0,0,0,0,0,0,0,0,0,0,0,0,0,0,0,0,0,0,0,0,0,0,0,0,0,0,0,0,0,0,0,0,0,0,0,0,0,0,0,0,0,0,0,0,0,0,0,0,0,0,0,0,0,0,0,0,0,0,0,0,0,0,0,0,0,0,0,0,0,0,0,0,0,0,0,0,0,0,0,0,0,0,0,0,0,0,0,0,0,0,0,0,0,0,0,0,0,0,0,0,0,0,0,0,0,0,0,0,0,0,0,0,0,0,0,0,0,0,0,0,0,0,0,0,0,0,0,0,0,0,0,0,0,0,0,0,0,0,0,0,0,0,0,0,0,0,0,0,0,  % Bus 15
  0,120,60,0,60,60,60,60,60,60,60,60,60,60,60,60,60,60,60,60,60,0,60,60,60,120,60,60,60,60,60,60,60,60,60,60,60,60,60,60,60,60,60,60,60,120,0,120,60,0,60,60,60,60,60,60,60,60,60,60,60,60,60,60,60,60,60,0,60,60,60,60,60,60,60,60,60,60,60,60,60,60,60,60,60,60,60,60,60,60,60,120,600,120,60,0,60,60,60,60,60,60,60,60,60,60,60,60,60,60,60,60,60,0,60,60,60,60,60,60,60,60,60,60,60,60,60,60,60,60,60,60,60,60,60,60,60,120,0,120,60,0,60,60,60,60,60,60,60,60,60,60,60,60,60,60,60,60,60,600,60,60,60,60,60,60,60,60,60,60,60,60,60,60,60,60,60,60,60,60,60,60,60,120,0,0,0,0,0,0,0,0,0,0,0,0,0,0,0,0,0,0,0,0,0,0,0,0,0,0,0,0,0,0,0,0,0,0,0,0,0,0,0,0,0,0,0,0,0,0,0,0,0,0,0,0,0,0,0,0,0,0,0,0,0,0,0,0,0,0,0,0,0,0,0,0,0,0,0,0,0,0,0,0,0,0,0,0,0,0,0,0,0,0,0,0,0,0,0,0,0,0,0,0,0,0,0,0,0,0,0,0,0,0,0,0,0,0,0,0,0,0,0,0,0,0,0,0,0,0,0,0,0,0,0,0,0,0,0,0,0,0,0,0,0,0,0,0,0,0,0,0,0,0,0,0,0,0,0,0,0,0,0,0,0,0,0,0,0,0,0,0,0,0,0,0,0,0,0,0,0,0,0,0,0,0,0,0,0,0,0,0,0,0,0,0,0,0,0,0,0,0,0,0,0,0,0,0,0,0,0,0,0,0,0,0,0,0,0,0,0,0,0,0,0,0,0,0,0,0,0,0,0,0,0,0,0,0,0,0,0,0,0,0,0,0,0,0,0,0,0,0,0,0,0,0,0,0,0,0,0,0,0,0,0,0,0,0,0,0,0,0,0,0,0,0,0,0,0,0,0,0,0,0,0,0,0,0,0,0,0,0,0,0,0,0,0,0,0,0,0,0,0,0,0,0,0,0,0,0,0,0,0,0,0,0,0,0,0,0,0,0,0,0,0,0,0,0,0,0,0,0,0,0,0,0,0,0,0,0,0,0,0,0,0,0,0,0,0,0,0,0,0,0,0,0,0,0,0,0,0,0,0,0,0,0,0,0,0,0,0,0,0,0,0,0,0,0,0,0,0,0,0,0,0,0,0,0,0,0,0,0,0,0,0,0,0,0,0,0,0,0,0,0,0,0,0,0,0,0,0,0,0,0,0,0,0,0,0,0,0,0,0,0,0,0,0,0,0,0,0,0,0,0,0,0,0,0,0,0,0,0,0,0,0,0,0,0,0,0,0,0,0,0,0,0,0,0,0,0,0,0,0,0,0,0,0,0,0,0,0,0,0,0,0,0,0,0,0,0,0,0,0,0,0,0,0,0,0,0,0,0,0  % Bus 16
]);

% --- Original Timetable (tau_bi) ---
% Scheduled arrival times in MINUTES since 00:00 (no scaling)
% Consistent with MiniZinc tbi variable (0..3000 range)
tau_bi = array2d(1..16, 1..673, [
  25200,25440,25560,25680,25800,25920,26040,26160,26280,26400,26520,26640,26760,26880,27000,27120,27240,27360,27480,27600,27600,27660,27720,27840,27960,28080,28200,28320,28440,28560,28680,28800,28920,28980,29040,29100,29220,29340,29460,29580,29700,30000,30000,30240,30360,30480,30600,30720,30840,30960,31080,31200,31320,31440,31560,31680,31800,31920,32040,32160,32280,32400,32400,32460,32520,32640,32760,32880,33000,33120,33240,33360,33480,33600,33720,33780,33840,33900,34020,34140,34260,34380,34500,34800,34800,35040,35160,35280,35400,35520,35640,35760,35880,36000,36120,36240,36360,36480,36600,36720,36840,36960,37080,37200,37200,37260,37320,37440,37560,37680,37800,37920,38040,38160,38280,38400,38520,38580,38640,38700,38820,38940,39060,39180,39300,39600,39600,39840,39960,40080,40200,40320,40440,40560,40680,40800,40920,41040,41160,41280,41400,41520,41640,41760,41880,42000,42000,42060,42120,42240,42360,42480,42600,42720,42840,42960,43080,43200,43320,43380,43440,43500,43620,43740,43860,43980,44100,44400,44400,44640,44760,44880,45000,45120,45240,45360,45480,45600,45720,45840,45960,46080,46200,46320,46440,46560,46680,46800,46800,46860,46920,47040,47160,47280,47400,47520,47640,47760,47880,48000,48120,48180,48240,48300,48420,48540,48660,48780,48900,49200,49200,49440,49560,49680,49800,49920,50040,50160,50280,50400,50520,50640,50760,50880,51000,51120,51240,51360,51480,51600,51600,51660,51720,51840,51960,52080,52200,52320,52440,52560,52680,52800,52920,52980,53040,53100,53220,53340,53460,53580,53700,54000,54000,54240,54360,54480,54600,54720,54840,54960,55080,55200,55320,55440,55560,55680,55800,55920,56040,56160,56280,56400,56400,56460,56520,56640,56760,56880,57000,57120,57240,57360,57480,57600,57720,57780,57840,57900,58020,58140,58260,58380,58500,58800,58800,59040,59160,59280,59400,59520,59640,59760,59880,60000,60120,60240,60360,60480,60600,60720,60840,60960,61080,61200,61200,61260,61320,61440,61560,61680,61800,61920,62040,62160,62280,62400,62520,62580,62640,62700,62820,62940,63060,63180,63300,63600,63600,63840,63960,64080,64200,64320,64440,64560,64680,64800,64920,65040,65160,65280,65400,65520,65640,65760,65880,66000,66000,66060,66120,66180,66240,66300,66360,66420,66480,66540,66600,66660,66720,66780,66840,66900,67020,67140,67260,67380,67500,67800,69000,69120,69240,69360,69480,69600,69720,69840,69960,70080,70200,70260,70320,70380,70440,70500,70560,70620,70680,70800,70800,70860,70920,70980,71040,71100,71160,71220,71280,71340,71400,71460,71520,71580,71640,71700,71820,71940,72060,72180,72300,72600,72600,72720,72840,72960,73080,73200,73320,73440,73560,73680,73800,73860,73920,73980,74040,74100,74160,74220,74280,74400,74400,74460,74520,74580,74640,74700,74760,74820,74880,74940,75000,75060,75120,75180,75240,75300,75420,75540,75660,75780,75900,76200,76200,76320,76440,76560,76680,76800,76920,77040,77160,77280,77400,77460,77520,77580,77640,77700,77760,77820,77880,78000,78000,78060,78120,78180,78240,78300,78360,78420,78480,78540,78600,78660,78720,78780,78840,78900,79020,79140,79260,79380,79500,79800,79800,79920,80040,80160,80280,80400,80520,80640,80760,80880,81000,81060,81120,81180,81240,81300,81360,81420,81480,81600,81600,81660,81720,81780,81840,81900,81960,82020,82080,82140,82200,82260,82320,82380,82440,82500,82620,82740,82860,82980,83100,83400,83400,83520,83640,83760,83880,84000,84120,84240,84360,84480,84600,84660,84720,84780,84840,84900,84960,85020,85080,85200,85200,85200,85200,85200,85200,85200,85200,85200,85200,85200,85200,85200,85200,85200,85200,85200,85200,85200,85200,85200,85200,85200,85200,85200,85200,85200,85200,85200,85200,85200,85200,85200,85200,85200,85200,85200,85200,85200,85200,85200,85200,85200,85200,85200,85200,85200,85200,85200,85200,85200,85200,85200,85200,85200,85200,85200,85200,85200,85200,85200,85200,85200,85200,85200,85200,85200,85200,85200,85200,85200,85200,85200,85200,85200,85200,85200,85200,85200,85200,85200,85200,85200,85200,85200,85200,85200,85200,85200,85200,85200,85200,85200,85200,85200,85200,85200,85200,85200,85200,85200,85200,85200,85200,85200,85200,85200,85200,  % Bus 1
  25800,25860,25920,25980,26040,26100,26160,26220,26280,26340,26400,26460,26520,26580,26640,26700,26820,26940,27060,27180,27300,27600,27600,27840,27960,28080,28200,28320,28440,28560,28680,28800,28920,29040,29160,29280,29400,29520,29640,29760,29880,30000,30000,30060,30120,30240,30360,30480,30600,30720,30840,30960,31080,31200,31320,31380,31440,31500,31620,31740,31860,31980,32100,32400,32400,32640,32760,32880,33000,33120,33240,33360,33480,33600,33720,33840,33960,34080,34200,34320,34440,34560,34680,34800,34800,34860,34920,35040,35160,35280,35400,35520,35640,35760,35880,36000,36120,36180,36240,36300,36420,36540,36660,36780,36900,37200,37200,37440,37560,37680,37800,37920,38040,38160,38280,38400,38520,38640,38760,38880,39000,39120,39240,39360,39480,39600,39600,39660,39720,39840,39960,40080,40200,40320,40440,40560,40680,40800,40920,40980,41040,41100,41220,41340,41460,41580,41700,42000,42000,42240,42360,42480,42600,42720,42840,42960,43080,43200,43320,43440,43560,43680,43800,43920,44040,44160,44280,44400,44400,44460,44520,44640,44760,44880,45000,45120,45240,45360,45480,45600,45720,45780,45840,45900,46020,46140,46260,46380,46500,46800,46800,47040,47160,47280,47400,47520,47640,47760,47880,48000,48120,48240,48360,48480,48600,48720,48840,48960,49080,49200,49200,49260,49320,49440,49560,49680,49800,49920,50040,50160,50280,50400,50520,50580,50640,50700,50820,50940,51060,51180,51300,51600,51600,51840,51960,52080,52200,52320,52440,52560,52680,52800,52920,53040,53160,53280,53400,53520,53640,53760,53880,54000,54000,54060,54120,54240,54360,54480,54600,54720,54840,54960,55080,55200,55320,55380,55440,55500,55620,55740,55860,55980,56100,56400,56400,56640,56760,56880,57000,57120,57240,57360,57480,57600,57720,57840,57960,58080,58200,58320,58440,58560,58680,58800,58800,58860,58920,59040,59160,59280,59400,59520,59640,59760,59880,60000,60120,60180,60240,60300,60420,60540,60660,60780,60900,61200,61200,61440,61560,61680,61800,61920,62040,62160,62280,62400,62520,62640,62760,62880,63000,63120,63240,63360,63480,63600,63600,63660,63720,63840,63960,64080,64200,64320,64440,64560,64680,64800,64920,64980,65040,65100,65220,65340,65460,65580,65700,66000,66000,66120,66240,66360,66480,66600,66720,66840,66960,67080,67200,67260,67320,67380,67440,67500,67560,67620,67680,67800,69000,69060,69120,69180,69240,69300,69360,69420,69480,69540,69600,69660,69720,69780,69840,69900,70020,70140,70260,70380,70500,70800,70800,70920,71040,71160,71280,71400,71520,71640,71760,71880,72000,72060,72120,72180,72240,72300,72360,72420,72480,72600,72600,72660,72720,72780,72840,72900,72960,73020,73080,73140,73200,73260,73320,73380,73440,73500,73620,73740,73860,73980,74100,74400,74400,74520,74640,74760,74880,75000,75120,75240,75360,75480,75600,75660,75720,75780,75840,75900,75960,76020,76080,76200,76200,76260,76320,76380,76440,76500,76560,76620,76680,76740,76800,76860,76920,76980,77040,77100,77220,77340,77460,77580,77700,78000,78000,78120,78240,78360,78480,78600,78720,78840,78960,79080,79200,79260,79320,79380,79440,79500,79560,79620,79680,79800,79800,79860,79920,79980,80040,80100,80160,80220,80280,80340,80400,80460,80520,80580,80640,80700,80820,80940,81060,81180,81300,81600,81600,81720,81840,81960,82080,82200,82320,82440,82560,82680,82800,82860,82920,82980,83040,83100,83160,83220,83280,83400,83400,83460,83520,83580,83640,83700,83760,83820,83880,83940,84000,84060,84120,84180,84240,84300,84420,84540,84660,84780,84900,85200,85200,85200,85200,85200,85200,85200,85200,85200,85200,85200,85200,85200,85200,85200,85200,85200,85200,85200,85200,85200,85200,85200,85200,85200,85200,85200,85200,85200,85200,85200,85200,85200,85200,85200,85200,85200,85200,85200,85200,85200,85200,85200,85200,85200,85200,85200,85200,85200,85200,85200,85200,85200,85200,85200,85200,85200,85200,85200,85200,85200,85200,85200,85200,85200,85200,85200,85200,85200,85200,85200,85200,85200,85200,85200,85200,85200,85200,85200,85200,85200,85200,85200,85200,85200,85200,85200,85200,85200,85200,85200,85200,85200,85200,85200,85200,85200,85200,85200,85200,85200,85200,85200,85200,85200,85200,  % Bus 2
  26400,26640,26760,26880,27000,27120,27240,27360,27480,27600,27720,27840,27960,28080,28200,28320,28440,28560,28680,28800,28800,28860,28920,29040,29160,29280,29400,29520,29640,29760,29880,30000,30120,30180,30240,30300,30420,30540,30660,30780,30900,31200,31200,31440,31560,31680,31800,31920,32040,32160,32280,32400,32520,32640,32760,32880,33000,33120,33240,33360,33480,33600,33600,33660,33720,33840,33960,34080,34200,34320,34440,34560,34680,34800,34920,34980,35040,35100,35220,35340,35460,35580,35700,36000,36000,36240,36360,36480,36600,36720,36840,36960,37080,37200,37320,37440,37560,37680,37800,37920,38040,38160,38280,38400,38400,38460,38520,38640,38760,38880,39000,39120,39240,39360,39480,39600,39720,39780,39840,39900,40020,40140,40260,40380,40500,40800,40800,41040,41160,41280,41400,41520,41640,41760,41880,42000,42120,42240,42360,42480,42600,42720,42840,42960,43080,43200,43200,43260,43320,43440,43560,43680,43800,43920,44040,44160,44280,44400,44520,44580,44640,44700,44820,44940,45060,45180,45300,45600,45600,45840,45960,46080,46200,46320,46440,46560,46680,46800,46920,47040,47160,47280,47400,47520,47640,47760,47880,48000,48000,48060,48120,48240,48360,48480,48600,48720,48840,48960,49080,49200,49320,49380,49440,49500,49620,49740,49860,49980,50100,50400,50400,50640,50760,50880,51000,51120,51240,51360,51480,51600,51720,51840,51960,52080,52200,52320,52440,52560,52680,52800,52800,52860,52920,53040,53160,53280,53400,53520,53640,53760,53880,54000,54120,54180,54240,54300,54420,54540,54660,54780,54900,55200,55200,55440,55560,55680,55800,55920,56040,56160,56280,56400,56520,56640,56760,56880,57000,57120,57240,57360,57480,57600,57600,57660,57720,57840,57960,58080,58200,58320,58440,58560,58680,58800,58920,58980,59040,59100,59220,59340,59460,59580,59700,60000,60000,60240,60360,60480,60600,60720,60840,60960,61080,61200,61320,61440,61560,61680,61800,61920,62040,62160,62280,62400,62400,62460,62520,62640,62760,62880,63000,63120,63240,63360,63480,63600,63720,63780,63840,63900,64020,64140,64260,64380,64500,64800,64800,65040,65160,65280,65400,65520,65640,65760,65880,66000,66120,66240,66360,66480,66600,66720,66840,66960,67080,67200,67200,67260,67320,67380,67440,67500,67560,67620,67680,67740,67800,67860,67920,67980,68040,68100,68220,68340,68460,68580,68700,69000,69000,69000,69000,69000,69000,69000,69000,69000,69000,69000,69000,69000,69000,69000,69000,69000,69000,69000,69000,69000,69000,69000,69000,69000,69000,69000,69000,69000,69000,69000,69000,69000,69000,69000,69000,69000,69000,69000,69000,69000,69000,69000,69000,69000,69000,69000,69000,69000,69000,69000,69000,69000,69000,69000,69000,69000,69000,69000,69000,69000,69000,69000,69000,69000,69000,69000,69000,69000,69000,69000,69000,69000,69000,69000,69000,69000,69000,69000,69000,69000,69000,69000,69000,69000,69000,69000,69000,69000,69000,69000,69000,69000,69000,69000,69000,69000,69000,69000,69000,69000,69000,69000,69000,69000,69000,69000,69000,69000,69000,69000,69000,69000,69000,69000,69000,69000,69000,69000,69000,69000,69000,69000,69000,69000,69000,69000,69000,69000,69000,69000,69000,69000,69000,69000,69000,69000,69000,69000,69000,69000,69000,69000,69000,69000,69000,69000,69000,69000,69000,69000,69000,69000,69000,69000,69000,69000,69000,69000,69000,69000,69000,69000,69000,69000,69000,69000,69000,69000,69000,69000,69000,69000,69000,69000,69000,69000,69000,69000,69000,69000,69000,69000,69000,69000,69000,69000,69000,69000,69000,69000,69000,69000,69000,69000,69000,69000,69000,69000,69000,69000,69000,69000,69000,69000,69000,69000,69000,69000,69000,69000,69000,69000,69000,69000,69000,69000,69000,69000,69000,69000,69000,69000,69000,69000,69000,69000,69000,69000,69000,69000,69000,69000,69000,69000,69000,69000,69000,69000,69000,69000,69000,69000,69000,69000,69000,69000,69000,69000,69000,69000,69000,69000,69000,69000,69000,69000,69000,69000,69000,69000,69000,69000,69000,69000,69000,69000,69000,69000,69000,69000,69000,69000,69000,69000,69000,69000,69000,69000,69000,69000,69000,69000,69000,69000,69000,69000,69000,69000,69000,69000,69000,69000,69000,69000,69000,  % Bus 3
  28800,29040,29160,29280,29400,29520,29640,29760,29880,30000,30120,30240,30360,30480,30600,30720,30840,30960,31080,31200,31200,31260,31320,31440,31560,31680,31800,31920,32040,32160,32280,32400,32520,32580,32640,32700,32820,32940,33060,33180,33300,33600,33600,33840,33960,34080,34200,34320,34440,34560,34680,34800,34920,35040,35160,35280,35400,35520,35640,35760,35880,36000,36000,36060,36120,36240,36360,36480,36600,36720,36840,36960,37080,37200,37320,37380,37440,37500,37620,37740,37860,37980,38100,38400,38400,38640,38760,38880,39000,39120,39240,39360,39480,39600,39720,39840,39960,40080,40200,40320,40440,40560,40680,40800,40800,40860,40920,41040,41160,41280,41400,41520,41640,41760,41880,42000,42120,42180,42240,42300,42420,42540,42660,42780,42900,43200,43200,43440,43560,43680,43800,43920,44040,44160,44280,44400,44520,44640,44760,44880,45000,45120,45240,45360,45480,45600,45600,45660,45720,45840,45960,46080,46200,46320,46440,46560,46680,46800,46920,46980,47040,47100,47220,47340,47460,47580,47700,48000,48000,48240,48360,48480,48600,48720,48840,48960,49080,49200,49320,49440,49560,49680,49800,49920,50040,50160,50280,50400,50400,50460,50520,50640,50760,50880,51000,51120,51240,51360,51480,51600,51720,51780,51840,51900,52020,52140,52260,52380,52500,52800,52800,53040,53160,53280,53400,53520,53640,53760,53880,54000,54120,54240,54360,54480,54600,54720,54840,54960,55080,55200,55200,55260,55320,55440,55560,55680,55800,55920,56040,56160,56280,56400,56520,56580,56640,56700,56820,56940,57060,57180,57300,57600,57600,57840,57960,58080,58200,58320,58440,58560,58680,58800,58920,59040,59160,59280,59400,59520,59640,59760,59880,60000,60000,60060,60120,60240,60360,60480,60600,60720,60840,60960,61080,61200,61320,61380,61440,61500,61620,61740,61860,61980,62100,62400,62400,62640,62760,62880,63000,63120,63240,63360,63480,63600,63720,63840,63960,64080,64200,64320,64440,64560,64680,64800,64800,64860,64920,65040,65160,65280,65400,65520,65640,65760,65880,66000,66120,66180,66240,66300,66420,66540,66660,66780,66900,67200,67200,67320,67440,67560,67680,67800,67920,68040,68160,68280,68400,68460,68520,68580,68640,68700,68760,68820,68880,69000,69000,69000,69000,69000,69000,69000,69000,69000,69000,69000,69000,69000,69000,69000,69000,69000,69000,69000,69000,69000,69000,69000,69000,69000,69000,69000,69000,69000,69000,69000,69000,69000,69000,69000,69000,69000,69000,69000,69000,69000,69000,69000,69000,69000,69000,69000,69000,69000,69000,69000,69000,69000,69000,69000,69000,69000,69000,69000,69000,69000,69000,69000,69000,69000,69000,69000,69000,69000,69000,69000,69000,69000,69000,69000,69000,69000,69000,69000,69000,69000,69000,69000,69000,69000,69000,69000,69000,69000,69000,69000,69000,69000,69000,69000,69000,69000,69000,69000,69000,69000,69000,69000,69000,69000,69000,69000,69000,69000,69000,69000,69000,69000,69000,69000,69000,69000,69000,69000,69000,69000,69000,69000,69000,69000,69000,69000,69000,69000,69000,69000,69000,69000,69000,69000,69000,69000,69000,69000,69000,69000,69000,69000,69000,69000,69000,69000,69000,69000,69000,69000,69000,69000,69000,69000,69000,69000,69000,69000,69000,69000,69000,69000,69000,69000,69000,69000,69000,69000,69000,69000,69000,69000,69000,69000,69000,69000,69000,69000,69000,69000,69000,69000,69000,69000,69000,69000,69000,69000,69000,69000,69000,69000,69000,69000,69000,69000,69000,69000,69000,69000,69000,69000,69000,69000,69000,69000,69000,69000,69000,69000,69000,69000,69000,69000,69000,69000,69000,69000,69000,69000,69000,69000,69000,69000,69000,69000,69000,69000,69000,69000,69000,69000,69000,69000,69000,69000,69000,69000,69000,69000,69000,69000,69000,69000,69000,69000,69000,69000,69000,69000,69000,69000,69000,69000,69000,69000,69000,69000,69000,69000,69000,69000,69000,69000,69000,69000,69000,69000,69000,69000,69000,69000,69000,69000,69000,69000,69000,69000,69000,69000,69000,69000,69000,69000,69000,69000,69000,69000,69000,69000,69000,69000,69000,69000,69000,69000,69000,69000,69000,69000,69000,69000,69000,69000,69000,69000,69000,69000,69000,69000,69000,69000,69000,69000,69000,69000,69000,  % Bus 4
  24600,24780,24840,24900,24960,25020,25080,25080,25260,25320,25380,25440,25440,25500,25560,25560,25620,25620,25680,26100,26100,26160,26160,26220,26220,26280,26280,26340,26400,26460,26520,26580,26700,26820,26880,27000,27060,27240,27660,27720,27840,27960,28020,28140,28200,28260,28320,28320,28380,28440,28500,28500,28560,28620,28680,28680,28740,28860,28920,28980,29400,29580,29760,29820,30000,30060,30060,30120,30240,30300,30300,30360,30420,30540,30720,30780,30840,30960,31200,31440,31680,31800,31860,31920,31980,32040,32040,32220,32280,32340,32400,32460,32520,32520,32580,32580,32640,32640,33300,33300,33360,33360,33420,33420,33480,33480,33540,33600,33660,33720,33780,33960,34080,34140,34260,34320,34500,34920,34980,35160,35280,35340,35460,35520,35580,35640,35640,35700,35760,35820,35820,35880,35940,36000,36000,36060,36180,36240,36300,36900,37020,37140,37200,37260,37320,37320,37380,37440,37500,37560,37620,37620,37680,37860,37920,37980,38160,38340,38580,38760,38820,38880,38940,39000,39060,39120,39300,39360,39420,39420,39480,39540,39540,39600,39600,39660,39660,40500,40500,40560,40560,40620,40620,40680,40680,40740,40800,40860,40920,40980,41160,41280,41340,41460,41520,41700,42120,42180,42360,42480,42540,42660,42720,42780,42840,42840,42900,42960,43020,43020,43080,43140,43200,43200,43260,43380,43440,43500,44100,44220,44400,44460,44520,44580,44580,44640,44700,44760,44820,44880,44880,45060,45120,45180,45240,45300,45480,45720,45900,45960,46020,46140,46260,46320,46320,46560,46620,46680,46740,46800,46860,46860,46920,46920,46980,46980,47700,47700,47760,47760,47820,47820,47880,47880,47940,48000,48060,48120,48180,48360,48480,48540,48660,48720,48900,49320,49380,49560,49680,49740,49860,49920,49980,50040,50040,50100,50160,50220,50220,50280,50340,50400,50400,50460,50580,50640,50700,51300,51420,51600,51660,51720,51780,51780,51840,51900,51960,52020,52080,52080,52260,52320,52380,52440,52500,52680,52920,53100,53160,53220,53340,53460,53520,53520,53760,53820,53880,53940,54000,54060,54060,54120,54120,54180,54180,54900,54900,54960,54960,55020,55020,55080,55080,55140,55200,55260,55320,55380,55620,55800,55860,55980,56040,56280,56700,56760,56880,57000,57060,57240,57300,57360,57480,57480,57540,57600,57660,57720,57780,57840,57900,57960,58080,58200,58260,58320,58500,58680,58980,59040,59100,59160,59160,59220,59280,59340,59400,59460,59460,59580,59700,59820,59880,59940,60120,60360,60540,60600,60720,60840,60960,61080,61140,61380,61440,61500,61500,61560,61620,61680,61680,61740,61740,61800,62100,62100,62160,62160,62220,62220,62280,62280,62340,62400,62460,62520,62580,62820,63000,63060,63180,63240,63480,63900,63960,64080,64200,64260,64440,64500,64560,64680,64680,64740,64800,64860,64920,64980,65040,65100,65160,65280,65400,65460,65520,65700,65880,66060,66120,66180,66180,66240,66300,66360,66420,66420,66480,66540,66660,66780,66840,66900,66960,67140,67320,67500,67560,67680,67800,67920,67980,67980,68220,68280,68340,68400,68460,68520,68520,68580,68580,68640,68640,69300,69300,69360,69360,69420,69420,69480,69480,69540,69600,69660,69720,69720,69840,69900,69960,70020,70080,70200,70440,70440,70500,70560,70620,70680,70740,70800,70800,70860,70920,70920,70980,70980,71040,71100,71100,71160,71160,71220,71280,71280,72900,73020,73140,73200,73260,73260,73320,73320,73380,73440,73440,73500,73500,73560,73620,73680,73740,73800,73920,74100,74220,74280,74340,74400,74460,74520,74520,74580,74640,74700,74760,74760,74820,74880,74880,74940,74940,75000,76500,76500,76560,76560,76620,76620,76680,76680,76740,76800,76860,76920,76920,77040,77100,77160,77220,77280,77400,77640,77640,77700,77760,77820,77880,77940,78000,78000,78060,78120,78120,78180,78180,78240,78300,78300,78360,78360,78420,78480,78480,80100,80220,80340,80400,80460,80460,80520,80520,80580,80640,80640,80700,80700,80760,80820,80880,80940,81000,81120,81300,81420,81480,81540,81600,81660,81720,81720,81780,81840,81900,81960,81960,82020,82080,82080,82140,82140,82200,83700,83700,83760,83760,83820,83820,83880,83880,83940,84000,84060,84120,84120,84240,84300,84360,84420,84480,84600,84600,84600,84600,  % Bus 5
  23400,23460,23580,23700,23760,23880,23880,23940,24000,24060,24120,24120,24180,24240,24300,24360,24360,24420,24420,24540,24600,24660,24900,25020,25140,25200,25260,25320,25320,25380,25440,25500,25560,25560,25620,25680,25740,25800,25800,25860,26040,26280,26460,26520,26580,26640,26700,26760,26820,27000,27060,27120,27120,27180,27240,27240,27300,27300,27360,27360,28500,28500,28560,28560,28620,28620,28680,28680,28740,28800,28860,28920,28980,29160,29280,29340,29460,29520,29820,30360,30420,30540,30660,30720,30900,30960,31020,31140,31200,31260,31260,31320,31380,31440,31500,31500,31560,31560,31680,31740,31800,32100,32220,32340,32400,32460,32520,32520,32580,32640,32700,32760,32820,32820,32880,33060,33120,33180,33360,33540,33780,33960,34020,34080,34140,34200,34260,34320,34500,34560,34620,34620,34680,34740,34740,34800,34800,34860,34860,35700,35700,35760,35760,35820,35820,35880,35880,35940,36000,36060,36120,36180,36360,36480,36540,36660,36720,36900,37320,37380,37560,37680,37740,37860,37920,37980,38040,38040,38100,38160,38220,38220,38280,38340,38400,38400,38460,38580,38640,38700,39300,39420,39540,39600,39660,39720,39720,39780,39840,39900,39960,40020,40020,40080,40260,40320,40380,40560,40740,40980,41160,41220,41280,41340,41400,41460,41520,41700,41760,41820,41820,41880,41940,41940,42000,42000,42060,42060,42900,42900,42960,42960,43020,43020,43080,43080,43140,43200,43260,43320,43380,43560,43680,43740,43860,43920,44100,44520,44580,44760,44880,44940,45060,45120,45180,45240,45240,45300,45360,45420,45420,45480,45540,45600,45600,45660,45780,45840,45900,46500,46620,46800,46860,46920,46980,46980,47040,47100,47160,47220,47280,47280,47460,47520,47580,47640,47700,47880,48120,48300,48360,48420,48540,48660,48720,48720,48960,49020,49080,49140,49200,49260,49260,49320,49320,49380,49380,50100,50100,50160,50160,50220,50220,50280,50280,50340,50400,50460,50520,50580,50760,50880,50940,51060,51120,51300,51720,51780,51960,52080,52140,52260,52320,52380,52440,52440,52500,52560,52620,52620,52680,52740,52800,52800,52860,52980,53040,53100,53700,53820,54000,54060,54120,54180,54180,54240,54300,54360,54420,54480,54480,54660,54720,54780,54840,54900,55080,55320,55500,55560,55620,55740,55860,55920,55920,56160,56220,56280,56340,56400,56460,56460,56520,56520,56580,56580,57300,57300,57360,57360,57420,57420,57480,57480,57540,57600,57660,57720,57780,58020,58200,58260,58380,58440,58680,59100,59160,59280,59400,59460,59640,59700,59760,59880,59880,59940,60000,60060,60120,60180,60240,60300,60360,60480,60600,60660,60720,60900,61080,61380,61440,61500,61560,61560,61620,61680,61740,61800,61860,61860,61980,62100,62220,62280,62340,62520,62760,62940,63000,63120,63240,63360,63480,63540,63780,63840,63900,63900,63960,64020,64080,64080,64140,64140,64200,64500,64500,64560,64560,64620,64620,64680,64680,64740,64800,64860,64920,64980,65220,65400,65460,65580,65640,65880,67500,67500,67560,67560,67620,67620,67680,67680,67740,67800,67860,67920,67920,68040,68100,68160,68220,68280,68400,68640,68640,68700,68760,68820,68880,68940,69000,69000,69060,69120,69120,69180,69180,69240,69300,69300,69360,69360,69420,69480,69480,71100,71220,71340,71400,71460,71460,71520,71520,71580,71640,71640,71700,71700,71760,71820,71880,71940,72000,72120,72300,72420,72480,72540,72600,72660,72720,72720,72780,72840,72900,72960,72960,73020,73080,73080,73140,73140,73200,74700,74700,74760,74760,74820,74820,74880,74880,74940,75000,75060,75120,75120,75240,75300,75360,75420,75480,75600,75840,75840,75900,75960,76020,76080,76140,76200,76200,76260,76320,76320,76380,76380,76440,76500,76500,76560,76560,76620,76680,76680,78300,78420,78540,78600,78660,78660,78720,78720,78780,78840,78840,78900,78900,78960,79020,79080,79140,79200,79320,79500,79620,79680,79740,79800,79860,79920,79920,79980,80040,80100,80160,80160,80220,80280,80280,80340,80340,80400,81900,81900,81960,81960,82020,82020,82080,82080,82140,82200,82260,82320,82320,82440,82500,82560,82620,82680,82800,83040,83040,83100,83160,83220,83280,83340,83400,83400,83460,83520,83520,83580,83580,83640,83700,83700,83760,83760,83820,83880,83880,  % Bus 6
  25800,25980,26040,26100,26160,26220,26280,26280,26460,26520,26580,26640,26640,26700,26760,26760,26820,26820,26880,27300,27300,27360,27360,27420,27420,27480,27480,27540,27600,27660,27720,27780,27960,28080,28140,28260,28320,28620,29160,29220,29340,29460,29520,29700,29760,29820,29940,30000,30060,30060,30120,30180,30240,30300,30300,30360,30360,30480,30540,30600,30900,31080,31260,31320,31380,31440,31440,31500,31620,31680,31680,31740,31800,31920,32100,32160,32220,32340,32580,32820,33060,33180,33240,33300,33360,33420,33420,33600,33660,33720,33780,33840,33900,33900,33960,33960,34020,34020,34500,34500,34560,34560,34620,34620,34680,34680,34740,34800,34860,34920,34980,35160,35280,35340,35460,35520,35700,36120,36180,36360,36480,36540,36660,36720,36780,36840,36840,36900,36960,37020,37020,37080,37140,37200,37200,37260,37380,37440,37500,38100,38220,38340,38400,38460,38520,38520,38580,38640,38700,38760,38820,38820,38880,39060,39120,39180,39360,39540,39780,39960,40020,40080,40140,40200,40260,40320,40500,40560,40620,40620,40680,40740,40740,40800,40800,40860,40860,41700,41700,41760,41760,41820,41820,41880,41880,41940,42000,42060,42120,42180,42360,42480,42540,42660,42720,42900,43320,43380,43560,43680,43740,43860,43920,43980,44040,44040,44100,44160,44220,44220,44280,44340,44400,44400,44460,44580,44640,44700,45300,45420,45600,45660,45720,45780,45780,45840,45900,45960,46020,46080,46080,46260,46320,46380,46440,46500,46680,46920,47100,47160,47220,47340,47460,47520,47520,47760,47820,47880,47940,48000,48060,48060,48120,48120,48180,48180,48900,48900,48960,48960,49020,49020,49080,49080,49140,49200,49260,49320,49380,49560,49680,49740,49860,49920,50100,50520,50580,50760,50880,50940,51060,51120,51180,51240,51240,51300,51360,51420,51420,51480,51540,51600,51600,51660,51780,51840,51900,52500,52620,52800,52860,52920,52980,52980,53040,53100,53160,53220,53280,53280,53460,53520,53580,53640,53700,53880,54120,54300,54360,54420,54540,54660,54720,54720,54960,55020,55080,55140,55200,55260,55260,55320,55320,55380,55380,56100,56100,56160,56160,56220,56220,56280,56280,56340,56400,56460,56520,56580,56820,57000,57060,57180,57240,57480,57900,57960,58080,58200,58260,58440,58500,58560,58680,58680,58740,58800,58860,58920,58980,59040,59100,59160,59280,59400,59460,59520,59700,59880,60180,60240,60300,60360,60360,60420,60480,60540,60600,60660,60660,60780,60900,61020,61080,61140,61320,61560,61740,61800,61920,62040,62160,62280,62340,62580,62640,62700,62700,62760,62820,62880,62880,62940,62940,63000,63300,63300,63360,63360,63420,63420,63480,63480,63540,63600,63660,63720,63780,64020,64200,64260,64380,64440,64680,65100,65160,65280,65400,65460,65640,65700,65760,65880,65880,65940,66000,66060,66120,66180,66240,66300,66360,66480,66600,66660,66720,67500,67620,67740,67800,67860,67860,67920,67920,67980,68040,68040,68100,68100,68160,68220,68280,68340,68400,68520,68700,68820,68880,68940,69000,69060,69120,69120,69180,69240,69300,69360,69360,69420,69480,69480,69540,69540,69600,71100,71100,71160,71160,71220,71220,71280,71280,71340,71400,71460,71520,71520,71640,71700,71760,71820,71880,72000,72240,72240,72300,72360,72420,72480,72540,72600,72600,72660,72720,72720,72780,72780,72840,72900,72900,72960,72960,73020,73080,73080,74700,74820,74940,75000,75060,75060,75120,75120,75180,75240,75240,75300,75300,75360,75420,75480,75540,75600,75720,75900,76020,76080,76140,76200,76260,76320,76320,76380,76440,76500,76560,76560,76620,76680,76680,76740,76740,76800,78300,78300,78360,78360,78420,78420,78480,78480,78540,78600,78660,78720,78720,78840,78900,78960,79020,79080,79200,79440,79440,79500,79560,79620,79680,79740,79800,79800,79860,79920,79920,79980,79980,80040,80100,80100,80160,80160,80220,80280,80280,81900,82020,82140,82200,82260,82260,82320,82320,82380,82440,82440,82500,82500,82560,82620,82680,82740,82800,82920,83100,83220,83280,83340,83400,83460,83520,83520,83580,83640,83700,83760,83760,83820,83880,83880,83940,83940,84000,84000,84000,84000,84000,84000,84000,84000,84000,84000,84000,84000,84000,84000,84000,84000,84000,84000,84000,84000,84000,84000,84000,  % Bus 7
  24600,24660,24780,24900,24960,25080,25080,25140,25200,25260,25320,25320,25380,25440,25500,25560,25560,25620,25620,25740,25800,25860,26100,26280,26460,26520,26580,26640,26640,26700,26820,26880,26880,26940,27000,27120,27300,27360,27420,27540,27780,28020,28260,28380,28440,28500,28560,28620,28620,28800,28860,28920,28980,29040,29100,29100,29160,29160,29220,29220,29700,29700,29760,29760,29820,29820,29880,29880,29940,30000,30060,30120,30180,30360,30480,30540,30660,30720,31020,31560,31620,31740,31860,31920,32100,32160,32220,32340,32400,32460,32460,32520,32580,32640,32700,32700,32760,32760,32880,32940,33000,33300,33420,33540,33600,33660,33720,33720,33780,33840,33900,33960,34020,34020,34080,34260,34320,34380,34560,34740,34980,35160,35220,35280,35340,35400,35460,35520,35700,35760,35820,35820,35880,35940,35940,36000,36000,36060,36060,36900,36900,36960,36960,37020,37020,37080,37080,37140,37200,37260,37320,37380,37560,37680,37740,37860,37920,38100,38520,38580,38760,38880,38940,39060,39120,39180,39240,39240,39300,39360,39420,39420,39480,39540,39600,39600,39660,39780,39840,39900,40500,40620,40740,40800,40860,40920,40920,40980,41040,41100,41160,41220,41220,41280,41460,41520,41580,41760,41940,42180,42360,42420,42480,42540,42600,42660,42720,42900,42960,43020,43020,43080,43140,43140,43200,43200,43260,43260,44100,44100,44160,44160,44220,44220,44280,44280,44340,44400,44460,44520,44580,44760,44880,44940,45060,45120,45300,45720,45780,45960,46080,46140,46260,46320,46380,46440,46440,46500,46560,46620,46620,46680,46740,46800,46800,46860,46980,47040,47100,47700,47820,48000,48060,48120,48180,48180,48240,48300,48360,48420,48480,48480,48660,48720,48780,48840,48900,49080,49320,49500,49560,49620,49740,49860,49920,49920,50160,50220,50280,50340,50400,50460,50460,50520,50520,50580,50580,51300,51300,51360,51360,51420,51420,51480,51480,51540,51600,51660,51720,51780,51960,52080,52140,52260,52320,52500,52920,52980,53160,53280,53340,53460,53520,53580,53640,53640,53700,53760,53820,53820,53880,53940,54000,54000,54060,54180,54240,54300,54900,55020,55200,55260,55320,55380,55380,55440,55500,55560,55620,55680,55680,55860,55920,55980,56040,56100,56280,56520,56700,56760,56820,56940,57060,57120,57120,57360,57420,57480,57540,57600,57660,57660,57720,57720,57780,57780,58500,58500,58560,58560,58620,58620,58680,58680,58740,58800,58860,58920,58980,59220,59400,59460,59580,59640,59880,60300,60360,60480,60600,60660,60840,60900,60960,61080,61080,61140,61200,61260,61320,61380,61440,61500,61560,61680,61800,61860,61920,62100,62280,62580,62640,62700,62760,62760,62820,62880,62940,63000,63060,63060,63180,63300,63420,63480,63540,63720,63960,64140,64200,64320,64440,64560,64680,64740,64980,65040,65100,65100,65160,65220,65280,65280,65340,65340,65400,65700,65700,65760,65760,65820,65820,65880,65880,65940,66000,66060,66120,66120,66240,66300,66360,66420,66480,66600,66840,66840,66900,66960,67020,67080,67140,67200,67200,67260,67320,67320,67380,67380,67440,67500,67500,67560,67560,67620,67680,67680,69300,69420,69540,69600,69660,69660,69720,69720,69780,69840,69840,69900,69900,69960,70020,70080,70140,70200,70320,70500,70620,70680,70740,70800,70860,70920,70920,70980,71040,71100,71160,71160,71220,71280,71280,71340,71340,71400,72900,72900,72960,72960,73020,73020,73080,73080,73140,73200,73260,73320,73320,73440,73500,73560,73620,73680,73800,74040,74040,74100,74160,74220,74280,74340,74400,74400,74460,74520,74520,74580,74580,74640,74700,74700,74760,74760,74820,74880,74880,76500,76620,76740,76800,76860,76860,76920,76920,76980,77040,77040,77100,77100,77160,77220,77280,77340,77400,77520,77700,77820,77880,77940,78000,78060,78120,78120,78180,78240,78300,78360,78360,78420,78480,78480,78540,78540,78600,80100,80100,80160,80160,80220,80220,80280,80280,80340,80400,80460,80520,80520,80640,80700,80760,80820,80880,81000,81240,81240,81300,81360,81420,81480,81540,81600,81600,81660,81720,81720,81780,81780,81840,81900,81900,81960,81960,82020,82080,82080,83700,83820,83940,84000,84060,84060,84120,84120,84180,84240,84240,84300,84300,84360,84420,84480,84540,84600,84720,  % Bus 8
  26400,26460,26580,26700,26760,26880,26880,26940,27000,27060,27120,27120,27180,27240,27300,27360,27360,27420,27420,27540,27600,27660,28200,28380,28560,28620,28680,28740,28740,28800,28920,28980,28980,29040,29100,29220,29400,29460,29520,29640,29880,30120,30360,30480,30540,30600,30660,30720,30720,30900,30960,31020,31080,31140,31200,31200,31260,31260,31320,31320,32100,32100,32160,32160,32220,32220,32280,32280,32340,32400,32460,32520,32580,32760,32880,32940,33060,33120,33300,33720,33780,33960,34080,34140,34260,34320,34380,34440,34440,34500,34560,34620,34620,34680,34740,34800,34800,34860,34980,35040,35100,35700,35820,35940,36000,36060,36120,36120,36180,36240,36300,36360,36420,36420,36480,36660,36720,36780,36960,37140,37380,37560,37620,37680,37740,37800,37860,37920,38100,38160,38220,38220,38280,38340,38340,38400,38400,38460,38460,39300,39300,39360,39360,39420,39420,39480,39480,39540,39600,39660,39720,39780,39960,40080,40140,40260,40320,40500,40920,40980,41160,41280,41340,41460,41520,41580,41640,41640,41700,41760,41820,41820,41880,41940,42000,42000,42060,42180,42240,42300,42900,43020,43200,43260,43320,43380,43380,43440,43500,43560,43620,43680,43680,43860,43920,43980,44040,44100,44280,44520,44700,44760,44820,44940,45060,45120,45120,45360,45420,45480,45540,45600,45660,45660,45720,45720,45780,45780,46500,46500,46560,46560,46620,46620,46680,46680,46740,46800,46860,46920,46980,47160,47280,47340,47460,47520,47700,48120,48180,48360,48480,48540,48660,48720,48780,48840,48840,48900,48960,49020,49020,49080,49140,49200,49200,49260,49380,49440,49500,50100,50220,50400,50460,50520,50580,50580,50640,50700,50760,50820,50880,50880,51060,51120,51180,51240,51300,51480,51720,51900,51960,52020,52140,52260,52320,52320,52560,52620,52680,52740,52800,52860,52860,52920,52920,52980,52980,53700,53700,53760,53760,53820,53820,53880,53880,53940,54000,54060,54120,54180,54360,54480,54540,54660,54720,54900,55320,55380,55560,55680,55740,55860,55920,55980,56040,56040,56100,56160,56220,56220,56280,56340,56400,56400,56460,56580,56640,56700,57300,57480,57780,57840,57900,57960,57960,58020,58080,58140,58200,58260,58260,58380,58500,58620,58680,58740,58920,59160,59340,59400,59520,59640,59760,59880,59940,60180,60240,60300,60300,60360,60420,60480,60480,60540,60540,60600,60900,60900,60960,60960,61020,61020,61080,61080,61140,61200,61260,61320,61380,61620,61800,61860,61980,62040,62280,62700,62760,62880,63000,63060,63240,63300,63360,63480,63480,63540,63600,63660,63720,63780,63840,63900,63960,64080,64200,64260,64320,64500,64680,64860,64920,64980,64980,65040,65100,65160,65220,65220,65280,65340,65460,65580,65640,65700,65760,65940,65940,65940,65940,65940,65940,65940,65940,65940,65940,65940,65940,65940,65940,65940,65940,65940,65940,65940,65940,65940,65940,65940,65940,65940,65940,65940,65940,65940,65940,65940,65940,65940,65940,65940,65940,65940,65940,65940,65940,65940,65940,65940,65940,65940,65940,65940,65940,65940,65940,65940,65940,65940,65940,65940,65940,65940,65940,65940,65940,65940,65940,65940,65940,65940,65940,65940,65940,65940,65940,65940,65940,65940,65940,65940,65940,65940,65940,65940,65940,65940,65940,65940,65940,65940,65940,65940,65940,65940,65940,65940,65940,65940,65940,65940,65940,65940,65940,65940,65940,65940,65940,65940,65940,65940,65940,65940,65940,65940,65940,65940,65940,65940,65940,65940,65940,65940,65940,65940,65940,65940,65940,65940,65940,65940,65940,65940,65940,65940,65940,65940,65940,65940,65940,65940,65940,65940,65940,65940,65940,65940,65940,65940,65940,65940,65940,65940,65940,65940,65940,65940,65940,65940,65940,65940,65940,65940,65940,65940,65940,65940,65940,65940,65940,65940,65940,65940,65940,65940,65940,65940,65940,65940,65940,65940,65940,65940,65940,65940,65940,65940,65940,65940,65940,65940,65940,65940,65940,65940,65940,65940,65940,65940,65940,65940,65940,65940,65940,65940,65940,65940,65940,65940,65940,65940,65940,65940,65940,65940,65940,65940,65940,65940,65940,65940,65940,65940,65940,65940,65940,65940,65940,65940,65940,65940,65940,65940,65940,65940,65940,65940,65940,65940,65940,65940,65940,65940,65940,  % Bus 9
  27300,27480,27660,27720,27780,27840,27840,27900,28020,28080,28080,28140,28200,28320,28500,28560,28620,28740,28980,29220,29460,29580,29640,29700,29760,29820,29820,30000,30060,30120,30180,30240,30300,30300,30360,30360,30420,30420,30900,30900,30960,30960,31020,31020,31080,31080,31140,31200,31260,31320,31380,31560,31680,31740,31860,31920,32220,32760,32820,32940,33060,33120,33300,33360,33420,33540,33600,33660,33660,33720,33780,33840,33900,33900,33960,33960,34080,34140,34200,34500,34620,34740,34800,34860,34920,34920,34980,35040,35100,35160,35220,35220,35280,35460,35520,35580,35760,35940,36180,36360,36420,36480,36540,36600,36660,36720,36900,36960,37020,37020,37080,37140,37140,37200,37200,37260,37260,38100,38100,38160,38160,38220,38220,38280,38280,38340,38400,38460,38520,38580,38760,38880,38940,39060,39120,39300,39720,39780,39960,40080,40140,40260,40320,40380,40440,40440,40500,40560,40620,40620,40680,40740,40800,40800,40860,40980,41040,41100,41700,41820,41940,42000,42060,42120,42120,42180,42240,42300,42360,42420,42420,42480,42660,42720,42780,42960,43140,43380,43560,43620,43680,43740,43800,43860,43920,44100,44160,44220,44220,44280,44340,44340,44400,44400,44460,44460,45300,45300,45360,45360,45420,45420,45480,45480,45540,45600,45660,45720,45780,45960,46080,46140,46260,46320,46500,46920,46980,47160,47280,47340,47460,47520,47580,47640,47640,47700,47760,47820,47820,47880,47940,48000,48000,48060,48180,48240,48300,48900,49020,49200,49260,49320,49380,49380,49440,49500,49560,49620,49680,49680,49860,49920,49980,50040,50100,50280,50520,50700,50760,50820,50940,51060,51120,51120,51360,51420,51480,51540,51600,51660,51660,51720,51720,51780,51780,52500,52500,52560,52560,52620,52620,52680,52680,52740,52800,52860,52920,52980,53160,53280,53340,53460,53520,53700,54120,54180,54360,54480,54540,54660,54720,54780,54840,54840,54900,54960,55020,55020,55080,55140,55200,55200,55260,55380,55440,55500,56100,56220,56400,56460,56520,56580,56580,56640,56700,56760,56820,56880,56880,57060,57120,57180,57240,57300,57480,57720,57900,57960,58020,58140,58260,58320,58320,58560,58620,58680,58740,58800,58860,58860,58920,58920,58980,58980,59700,59700,59760,59760,59820,59820,59880,59880,59940,60000,60060,60120,60180,60420,60600,60660,60780,60840,61080,61500,61560,61680,61800,61860,62040,62100,62160,62280,62280,62340,62400,62460,62520,62580,62640,62700,62760,62880,63000,63060,63120,63300,63480,63780,63840,63900,63960,63960,64020,64080,64140,64200,64260,64260,64380,64500,64620,64680,64740,64920,65160,65340,65400,65520,65640,65760,65880,65940,66180,66240,66300,66300,66360,66420,66480,66480,66540,66540,66600,66600,66600,66600,66600,66600,66600,66600,66600,66600,66600,66600,66600,66600,66600,66600,66600,66600,66600,66600,66600,66600,66600,66600,66600,66600,66600,66600,66600,66600,66600,66600,66600,66600,66600,66600,66600,66600,66600,66600,66600,66600,66600,66600,66600,66600,66600,66600,66600,66600,66600,66600,66600,66600,66600,66600,66600,66600,66600,66600,66600,66600,66600,66600,66600,66600,66600,66600,66600,66600,66600,66600,66600,66600,66600,66600,66600,66600,66600,66600,66600,66600,66600,66600,66600,66600,66600,66600,66600,66600,66600,66600,66600,66600,66600,66600,66600,66600,66600,66600,66600,66600,66600,66600,66600,66600,66600,66600,66600,66600,66600,66600,66600,66600,66600,66600,66600,66600,66600,66600,66600,66600,66600,66600,66600,66600,66600,66600,66600,66600,66600,66600,66600,66600,66600,66600,66600,66600,66600,66600,66600,66600,66600,66600,66600,66600,66600,66600,66600,66600,66600,66600,66600,66600,66600,66600,66600,66600,66600,66600,66600,66600,66600,66600,66600,66600,66600,66600,66600,66600,66600,66600,66600,66600,66600,66600,66600,66600,66600,66600,66600,66600,66600,66600,66600,66600,66600,66600,66600,66600,66600,66600,66600,66600,66600,66600,66600,66600,66600,66600,66600,66600,66600,66600,66600,66600,66600,66600,66600,66600,66600,66600,66600,66600,66600,66600,66600,66600,66600,66600,66600,66600,66600,66600,66600,66600,66600,66600,66600,66600,66600,66600,66600,66600,66600,66600,66600,66600,66600,66600,66600,  % Bus 10
  22800,23160,23280,23400,23460,23700,23820,23820,23940,24060,24180,24240,24300,24360,24540,24540,24600,24660,24720,24900,25020,25200,25200,25260,25320,25380,25440,25560,25620,25680,25740,25800,25860,25980,25980,26040,26100,26160,26220,26340,26400,26460,26580,26640,26760,26940,27300,27660,27780,28020,28080,28320,28440,28440,28560,28680,28800,28860,28920,28980,29160,29160,29220,29280,29340,29520,29640,29700,29700,29760,29880,30060,30240,30420,30540,30600,30660,30720,30780,30900,30900,30960,31020,31080,31200,31320,31380,31440,31620,31680,31860,32040,32400,32580,32700,32880,32940,33120,33240,33240,33360,33480,33540,33600,33660,33660,33840,33900,33960,33960,34020,34080,34200,34200,34200,34260,34320,34380,34440,34560,34620,34680,34740,34800,34800,34920,34980,35040,35100,35160,35220,35340,35340,35400,35520,35580,35700,35880,36000,36180,36300,36480,36540,36720,36840,36840,36960,37080,37140,37200,37260,37260,37440,37500,37560,37560,37620,37680,37800,38400,38400,38460,38520,38580,38640,38760,38820,38880,38940,39000,39000,39120,39180,39240,39300,39360,39420,39540,39540,39600,39720,39780,39900,40080,40500,40680,40800,40980,41040,41220,41340,41340,41460,41580,41640,41700,41760,41760,41940,42000,42060,42060,42120,42180,42300,42900,42900,42960,43020,43080,43140,43260,43320,43380,43440,43500,43500,43620,43680,43740,43800,43860,43920,44040,44040,44100,44220,44280,44400,44580,45000,45180,45300,45480,45540,45720,45840,45840,45960,46080,46140,46200,46260,46260,46440,46500,46560,46560,46620,46680,46800,47400,47400,47460,47520,47580,47640,47760,47820,47880,47940,48000,48000,48120,48180,48240,48300,48360,48420,48540,48540,48600,48720,48780,48900,49080,49500,49680,49800,49980,50040,50220,50340,50340,50460,50580,50640,50700,50760,50760,50940,51000,51060,51060,51120,51180,51300,51900,51900,51960,52020,52080,52140,52260,52320,52380,52440,52500,52500,52620,52680,52740,52800,52860,52920,53040,53040,53100,53220,53280,53400,53580,54000,54240,54360,54540,54600,54840,54960,55020,55140,55260,55380,55380,55440,55500,55680,55740,55800,55860,55920,56100,56220,56400,56400,56460,56520,56580,56640,56760,56820,56880,56940,57000,57000,57120,57180,57240,57300,57360,57420,57540,57540,57600,57720,57780,57900,58080,58500,58740,58860,59040,59100,59340,59460,59520,59640,59760,59880,59880,59940,60000,60180,60240,60300,60360,60420,60600,60720,61200,61200,61260,61320,61380,61440,61620,61740,61800,61860,61920,61980,62100,62160,62220,62280,62400,62580,62700,62700,62760,62940,63060,63240,63420,63900,64140,64260,64440,64500,64740,64860,64920,65040,65160,65280,65280,65340,65400,65580,65640,65700,65760,65820,66000,66120,66600,66600,66660,66720,66780,66840,67020,67140,67200,67260,67320,67380,67500,67560,67620,67680,67800,67980,68100,68100,68160,68340,68460,68640,68820,69600,69780,69840,69960,69960,70080,70140,70200,70260,70320,70320,70380,70380,70440,70560,70560,70620,70620,70680,70740,70800,71100,71100,71160,71220,71280,71340,71520,71640,71700,71760,71820,71880,72000,72060,72120,72180,72300,72480,72600,72600,72660,72840,72960,73140,73320,75000,75180,75240,75360,75360,75480,75540,75600,75660,75720,75720,75780,75780,75840,75960,75960,76020,76020,76080,76140,76200,76500,76500,76560,76620,76680,76740,76800,76860,76860,76920,76920,76980,77040,77040,77100,77100,77160,77220,77280,77340,77340,77460,77520,77640,77820,78300,78480,78540,78660,78660,78780,78840,78900,78960,79020,79020,79080,79080,79140,79260,79260,79320,79320,79380,79440,79500,80100,80100,80160,80220,80280,80340,80400,80460,80460,80520,80520,80580,80640,80640,80700,80700,80760,80820,80880,80940,80940,81060,81120,81240,81420,81900,82080,82140,82260,82260,82380,82440,82500,82560,82620,82620,82680,82680,82740,82860,82860,82920,82920,82980,83040,83100,83700,83700,83760,83820,83880,83940,84000,84060,84060,84120,84120,84180,84240,84240,84300,84300,84360,84420,84480,84540,84540,84660,84720,84840,85020,85020,85020,85020,85020,85020,85020,85020,85020,85020,85020,85020,85020,85020,85020,85020,85020,85020,85020,85020,85020,85020,85020,85020,85020,85020,85020,85020,85020,85020,  % Bus 11
  24000,24000,24060,24120,24180,24240,24360,24420,24480,24540,24600,24660,24780,24780,24840,24900,24960,25020,25140,25200,25260,25380,25440,25560,25740,26100,26460,26580,26820,26880,27120,27240,27240,27360,27480,27600,27660,27720,27780,27960,27960,28020,28080,28140,28320,28440,28800,28800,28860,28980,29160,29340,29520,29640,29700,29760,29820,29880,30000,30000,30060,30120,30180,30300,30420,30480,30540,30720,30780,30960,31140,31500,31860,31980,32160,32220,32580,32700,32760,32880,33000,33120,33120,33180,33240,33420,33480,33540,33540,33600,33780,33900,34800,34800,34860,34920,34980,35040,35160,35220,35280,35340,35400,35400,35520,35580,35640,35700,35760,35820,35940,35940,36000,36120,36180,36300,36480,36900,37080,37200,37380,37440,37620,37740,37740,37860,37980,38040,38100,38160,38160,38340,38400,38460,38460,38520,38580,38700,39300,39300,39360,39420,39480,39540,39660,39720,39780,39840,39900,39900,40020,40080,40140,40200,40260,40320,40440,40440,40500,40620,40680,40800,40980,41400,41580,41700,41880,41940,42120,42240,42240,42360,42480,42540,42600,42660,42660,42840,42900,42960,42960,43020,43080,43200,43800,43800,43860,43920,43980,44040,44160,44220,44280,44340,44400,44400,44520,44580,44640,44700,44760,44820,44940,44940,45000,45120,45180,45300,45480,45900,46080,46200,46380,46440,46620,46740,46740,46860,46980,47040,47100,47160,47160,47340,47400,47460,47460,47520,47580,47700,48300,48300,48360,48420,48480,48540,48660,48720,48780,48840,48900,48900,49020,49080,49140,49200,49260,49320,49440,49440,49500,49620,49680,49800,49980,50400,50580,50700,50880,50940,51120,51240,51240,51360,51480,51540,51600,51660,51660,51840,51900,51960,51960,52020,52080,52200,52800,52800,52860,52920,52980,53040,53160,53220,53280,53340,53400,53400,53520,53580,53640,53700,53760,53820,53940,53940,54000,54120,54180,54300,54480,54900,55140,55260,55440,55500,55740,55860,55920,56040,56160,56280,56280,56340,56400,56580,56640,56700,56760,56820,57000,57120,57600,57600,57660,57720,57780,57840,58020,58140,58200,58260,58320,58380,58500,58560,58620,58680,58800,58980,59100,59100,59160,59340,59460,59640,59820,60300,60540,60660,60840,60900,61140,61260,61320,61440,61560,61680,61680,61740,61800,61980,62040,62100,62160,62220,62400,62520,63000,63000,63060,63120,63180,63240,63420,63540,63600,63660,63720,63780,63900,63960,64020,64080,64200,64380,64500,64500,64560,64740,64860,65040,65220,65700,65880,66000,66120,66180,66360,66480,66480,66540,66600,66660,66720,66720,66780,66900,66960,67020,67020,67080,67140,67260,68400,68400,68460,68520,68580,68640,68820,68940,69000,69060,69120,69180,69300,69360,69420,69480,69600,69780,69900,69900,69960,70140,70260,70440,70620,71400,71580,71640,71760,71760,71880,71940,72000,72060,72120,72120,72180,72180,72240,72360,72360,72420,72420,72480,72540,72600,72900,72900,72960,73020,73080,73140,73200,73260,73260,73320,73320,73380,73440,73440,73500,73500,73560,73620,73680,73740,73740,73860,73920,74040,74220,76800,76980,77040,77160,77160,77280,77340,77400,77460,77520,77520,77580,77580,77640,77760,77760,77820,77820,77880,77940,78000,78300,78300,78360,78420,78480,78540,78600,78660,78660,78720,78720,78780,78840,78840,78900,78900,78960,79020,79080,79140,79140,79260,79320,79440,79620,80100,80280,80340,80460,80460,80580,80640,80700,80760,80820,80820,80880,80880,80940,81060,81060,81120,81120,81180,81240,81300,81900,81900,81960,82020,82080,82140,82200,82260,82260,82320,82320,82380,82440,82440,82500,82500,82560,82620,82680,82740,82740,82860,82920,83040,83220,83700,83880,83940,84060,84060,84180,84240,84300,84360,84420,84420,84480,84480,84540,84660,84660,84720,84720,84780,84840,84900,84900,84900,84900,84900,84900,84900,84900,84900,84900,84900,84900,84900,84900,84900,84900,84900,84900,84900,84900,84900,84900,84900,84900,84900,84900,84900,84900,84900,84900,84900,84900,84900,84900,84900,84900,84900,84900,84900,84900,84900,84900,84900,84900,84900,84900,84900,84900,84900,84900,84900,84900,84900,84900,84900,84900,84900,84900,84900,84900,84900,84900,84900,84900,84900,84900,84900,84900,84900,84900,84900,84900,84900,84900,84900,84900,  % Bus 12
  24000,24360,24480,24600,24660,24900,25020,25020,25140,25260,25380,25440,25500,25560,25740,25740,25800,25860,25920,26100,26220,26400,26400,26460,26520,26580,26640,26760,26820,26880,26940,27000,27060,27180,27180,27240,27300,27360,27420,27540,27600,27660,27780,27840,27960,28140,28800,29160,29280,29520,29580,29940,30060,30120,30240,30360,30480,30480,30540,30600,30780,30840,30900,30900,30960,31140,31260,31500,31500,31560,31680,31860,32040,32220,32340,32400,32460,32520,32580,32700,32700,32760,32820,32880,33000,33120,33180,33240,33420,33480,33660,33840,34200,34380,34500,34680,34740,34920,35040,35040,35160,35280,35340,35400,35460,35460,35640,35700,35760,35760,35820,35880,36000,36600,36600,36660,36720,36780,36840,36960,37020,37080,37140,37200,37200,37320,37380,37440,37500,37560,37620,37740,37740,37800,37920,37980,38100,38280,38700,38880,39000,39180,39240,39420,39540,39540,39660,39780,39840,39900,39960,39960,40140,40200,40260,40260,40320,40380,40500,41100,41100,41160,41220,41280,41340,41460,41520,41580,41640,41700,41700,41820,41880,41940,42000,42060,42120,42240,42240,42300,42420,42480,42600,42780,43200,43380,43500,43680,43740,43920,44040,44040,44160,44280,44340,44400,44460,44460,44640,44700,44760,44760,44820,44880,45000,45600,45600,45660,45720,45780,45840,45960,46020,46080,46140,46200,46200,46320,46380,46440,46500,46560,46620,46740,46740,46800,46920,46980,47100,47280,47700,47880,48000,48180,48240,48420,48540,48540,48660,48780,48840,48900,48960,48960,49140,49200,49260,49260,49320,49380,49500,50100,50100,50160,50220,50280,50340,50460,50520,50580,50640,50700,50700,50820,50880,50940,51000,51060,51120,51240,51240,51300,51420,51480,51600,51780,52200,52380,52500,52680,52740,52920,53040,53040,53160,53280,53340,53400,53460,53460,53640,53700,53760,53760,53820,53880,54000,54600,54600,54660,54720,54780,54840,54960,55020,55080,55140,55200,55200,55320,55380,55440,55500,55560,55620,55740,55740,55800,55920,55980,56100,56280,56700,56940,57060,57240,57300,57540,57660,57720,57840,57960,58080,58080,58140,58200,58380,58440,58500,58560,58620,58800,58920,59400,59400,59460,59520,59580,59640,59820,59940,60000,60060,60120,60180,60300,60360,60420,60480,60600,60780,60900,60900,60960,61140,61260,61440,61620,62100,62340,62460,62640,62700,62940,63060,63120,63240,63360,63480,63480,63540,63600,63780,63840,63900,63960,64020,64200,64320,64500,64500,64560,64620,64680,64740,64920,65040,65100,65160,65220,65280,65400,65460,65520,65580,65700,65880,66000,66000,66060,66240,66360,66540,66720,66900,67080,67140,67260,67320,67500,67620,67620,67680,67740,67800,67860,67860,67920,68040,68040,68100,68100,68160,68220,68280,68700,68700,68760,68820,68880,68940,69120,69240,69300,69360,69420,69480,69600,69660,69720,69780,69900,70080,70200,70200,70260,70440,70560,70740,70920,73200,73380,73440,73560,73560,73680,73740,73800,73860,73920,73920,73980,73980,74040,74160,74160,74220,74220,74280,74340,74400,74700,74700,74760,74820,74880,74940,75000,75060,75060,75120,75120,75180,75240,75240,75300,75300,75360,75420,75480,75540,75540,75660,75720,75840,76020,76020,76020,76020,76020,76020,76020,76020,76020,76020,76020,76020,76020,76020,76020,76020,76020,76020,76020,76020,76020,76020,76020,76020,76020,76020,76020,76020,76020,76020,76020,76020,76020,76020,76020,76020,76020,76020,76020,76020,76020,76020,76020,76020,76020,76020,76020,76020,76020,76020,76020,76020,76020,76020,76020,76020,76020,76020,76020,76020,76020,76020,76020,76020,76020,76020,76020,76020,76020,76020,76020,76020,76020,76020,76020,76020,76020,76020,76020,76020,76020,76020,76020,76020,76020,76020,76020,76020,76020,76020,76020,76020,76020,76020,76020,76020,76020,76020,76020,76020,76020,76020,76020,76020,76020,76020,76020,76020,76020,76020,76020,76020,76020,76020,76020,76020,76020,76020,76020,76020,76020,76020,76020,76020,76020,76020,76020,76020,76020,76020,76020,76020,76020,76020,76020,76020,76020,76020,76020,76020,76020,76020,76020,76020,76020,76020,76020,76020,76020,76020,76020,76020,76020,76020,76020,76020,76020,76020,76020,76020,76020,76020,76020,76020,76020,76020,76020,76020,  % Bus 13
  25200,25560,25680,25800,25860,26100,26220,26220,26340,26460,26580,26640,26700,26760,26940,26940,27000,27060,27120,27300,27420,27900,27900,27960,28020,28080,28140,28260,28320,28380,28440,28500,28560,28680,28680,28740,28800,28860,28920,29040,29100,29160,29280,29340,29460,29640,29700,30060,30180,30420,30480,30840,30960,31020,31140,31260,31380,31380,31440,31500,31680,31740,31800,31800,31860,32040,32160,32400,32400,32460,32520,32580,32640,32760,32820,32880,32940,33000,33000,33120,33180,33240,33300,33360,33420,33540,33540,33600,33720,33780,33900,34080,35100,35280,35400,35580,35640,35820,35940,35940,36060,36180,36240,36300,36360,36360,36540,36600,36660,36660,36720,36780,36900,37500,37500,37560,37620,37680,37740,37860,37920,37980,38040,38100,38100,38220,38280,38340,38400,38460,38520,38640,38640,38700,38820,38880,39000,39180,39600,39780,39900,40080,40140,40320,40440,40440,40560,40680,40740,40800,40860,40860,41040,41100,41160,41160,41220,41280,41400,42000,42000,42060,42120,42180,42240,42360,42420,42480,42540,42600,42600,42720,42780,42840,42900,42960,43020,43140,43140,43200,43320,43380,43500,43680,44100,44280,44400,44580,44640,44820,44940,44940,45060,45180,45240,45300,45360,45360,45540,45600,45660,45660,45720,45780,45900,46500,46500,46560,46620,46680,46740,46860,46920,46980,47040,47100,47100,47220,47280,47340,47400,47460,47520,47640,47640,47700,47820,47880,48000,48180,48600,48780,48900,49080,49140,49320,49440,49440,49560,49680,49740,49800,49860,49860,50040,50100,50160,50160,50220,50280,50400,51000,51000,51060,51120,51180,51240,51360,51420,51480,51540,51600,51600,51720,51780,51840,51900,51960,52020,52140,52140,52200,52320,52380,52500,52680,53100,53280,53400,53580,53640,53820,53940,53940,54060,54180,54240,54300,54360,54360,54540,54600,54660,54660,54720,54780,54900,55500,55500,55560,55620,55680,55740,55860,55920,55980,56040,56100,56100,56220,56280,56340,56400,56460,56520,56640,56640,56700,56820,56880,57000,57180,57600,57840,57960,58140,58200,58440,58560,58620,58740,58860,58980,58980,59040,59100,59280,59340,59400,59460,59520,59700,59820,60300,60300,60360,60420,60480,60540,60720,60840,60900,60960,61020,61080,61200,61260,61320,61380,61500,61680,61800,61800,61860,62040,62160,62340,62520,63000,63240,63360,63540,63600,63840,63960,64020,64140,64260,64380,64380,64440,64500,64680,64740,64800,64860,64920,65100,65220,65700,65700,65760,65820,65880,65940,66120,66240,66300,66360,66420,66480,66600,66660,66720,66780,66900,67080,67200,67200,67260,67440,67560,67740,67920,68400,68580,68640,68760,68760,68880,68940,69000,69060,69120,69120,69180,69180,69240,69360,69360,69420,69420,69480,69540,69600,69600,69600,69600,69600,69600,69600,69600,69600,69600,69600,69600,69600,69600,69600,69600,69600,69600,69600,69600,69600,69600,69600,69600,69600,69600,69600,69600,69600,69600,69600,69600,69600,69600,69600,69600,69600,69600,69600,69600,69600,69600,69600,69600,69600,69600,69600,69600,69600,69600,69600,69600,69600,69600,69600,69600,69600,69600,69600,69600,69600,69600,69600,69600,69600,69600,69600,69600,69600,69600,69600,69600,69600,69600,69600,69600,69600,69600,69600,69600,69600,69600,69600,69600,69600,69600,69600,69600,69600,69600,69600,69600,69600,69600,69600,69600,69600,69600,69600,69600,69600,69600,69600,69600,69600,69600,69600,69600,69600,69600,69600,69600,69600,69600,69600,69600,69600,69600,69600,69600,69600,69600,69600,69600,69600,69600,69600,69600,69600,69600,69600,69600,69600,69600,69600,69600,69600,69600,69600,69600,69600,69600,69600,69600,69600,69600,69600,69600,69600,69600,69600,69600,69600,69600,69600,69600,69600,69600,69600,69600,69600,69600,69600,69600,69600,69600,69600,69600,69600,69600,69600,69600,69600,69600,69600,69600,69600,69600,69600,69600,69600,69600,69600,69600,69600,69600,69600,69600,69600,69600,69600,69600,69600,69600,69600,69600,69600,69600,69600,69600,69600,69600,69600,69600,69600,69600,69600,69600,69600,69600,69600,69600,69600,69600,69600,69600,69600,69600,69600,69600,69600,69600,69600,69600,69600,69600,69600,69600,69600,69600,69600,69600,69600,69600,69600,69600,69600,69600,69600,  % Bus 14
  27000,27000,27060,27120,27180,27240,27360,27420,27480,27540,27600,27660,27780,27780,27840,27900,27960,28020,28140,28200,28260,28380,28440,28560,28740,30600,30960,31080,31320,31380,31740,31860,31920,32040,32160,32280,32280,32340,32400,32580,32640,32700,32700,32760,32940,33060,33300,33300,33360,33420,33480,33540,33660,33720,33780,33840,33900,33900,34020,34080,34140,34200,34260,34320,34440,34440,34500,34620,34680,34800,34980,37800,37980,38100,38280,38340,38520,38640,38640,38760,38880,38940,39000,39060,39060,39240,39300,39360,39360,39420,39480,39600,40200,40200,40260,40320,40380,40440,40560,40620,40680,40740,40800,40800,40920,40980,41040,41100,41160,41220,41340,41340,41400,41520,41580,41700,41880,42300,42480,42600,42780,42840,43020,43140,43140,43260,43380,43440,43500,43560,43560,43740,43800,43860,43860,43920,43980,44100,44700,44700,44760,44820,44880,44940,45060,45120,45180,45240,45300,45300,45420,45480,45540,45600,45660,45720,45840,45840,45900,46020,46080,46200,46380,46800,46980,47100,47280,47340,47520,47640,47640,47760,47880,47940,48000,48060,48060,48240,48300,48360,48360,48420,48480,48600,49200,49200,49260,49320,49380,49440,49560,49620,49680,49740,49800,49800,49920,49980,50040,50100,50160,50220,50340,50340,50400,50520,50580,50700,50880,51300,51480,51600,51780,51840,52020,52140,52140,52260,52380,52440,52500,52560,52560,52740,52800,52860,52860,52920,52980,53100,53700,53700,53760,53820,53880,53940,54060,54120,54180,54240,54300,54300,54420,54480,54540,54600,54660,54720,54840,54840,54900,55020,55080,55200,55380,55800,56040,56160,56340,56400,56640,56760,56820,56940,57060,57180,57180,57240,57300,57480,57540,57600,57660,57720,57900,58020,58500,58500,58560,58620,58680,58740,58920,59040,59100,59160,59220,59280,59400,59460,59520,59580,59700,59880,60000,60000,60060,60240,60360,60540,60720,61200,61440,61560,61740,61800,62040,62160,62220,62340,62460,62580,62580,62640,62700,62880,62940,63000,63060,63120,63300,63420,63900,63900,63960,64020,64080,64140,64320,64440,64500,64560,64620,64680,64800,64860,64920,64980,65100,65280,65400,65400,65460,65640,65760,65940,66120,66600,66780,66840,66960,67020,67200,67320,67320,67380,67440,67500,67560,67560,67620,67740,67740,67800,67800,67860,67920,67980,67980,67980,67980,67980,67980,67980,67980,67980,67980,67980,67980,67980,67980,67980,67980,67980,67980,67980,67980,67980,67980,67980,67980,67980,67980,67980,67980,67980,67980,67980,67980,67980,67980,67980,67980,67980,67980,67980,67980,67980,67980,67980,67980,67980,67980,67980,67980,67980,67980,67980,67980,67980,67980,67980,67980,67980,67980,67980,67980,67980,67980,67980,67980,67980,67980,67980,67980,67980,67980,67980,67980,67980,67980,67980,67980,67980,67980,67980,67980,67980,67980,67980,67980,67980,67980,67980,67980,67980,67980,67980,67980,67980,67980,67980,67980,67980,67980,67980,67980,67980,67980,67980,67980,67980,67980,67980,67980,67980,67980,67980,67980,67980,67980,67980,67980,67980,67980,67980,67980,67980,67980,67980,67980,67980,67980,67980,67980,67980,67980,67980,67980,67980,67980,67980,67980,67980,67980,67980,67980,67980,67980,67980,67980,67980,67980,67980,67980,67980,67980,67980,67980,67980,67980,67980,67980,67980,67980,67980,67980,67980,67980,67980,67980,67980,67980,67980,67980,67980,67980,67980,67980,67980,67980,67980,67980,67980,67980,67980,67980,67980,67980,67980,67980,67980,67980,67980,67980,67980,67980,67980,67980,67980,67980,67980,67980,67980,67980,67980,67980,67980,67980,67980,67980,67980,67980,67980,67980,67980,67980,67980,67980,67980,67980,67980,67980,67980,67980,67980,67980,67980,67980,67980,67980,67980,67980,67980,67980,67980,67980,67980,67980,67980,67980,67980,67980,67980,67980,67980,67980,67980,67980,67980,67980,67980,67980,67980,67980,67980,67980,67980,67980,67980,67980,67980,67980,67980,67980,67980,67980,67980,67980,67980,67980,67980,67980,67980,67980,67980,67980,67980,67980,67980,67980,67980,67980,67980,67980,67980,67980,67980,67980,67980,67980,67980,67980,67980,67980,67980,67980,67980,67980,67980,67980,67980,67980,67980,67980,67980,67980,67980,67980,67980,67980,67980,67980,  % Bus 15
  27900,28260,28380,28620,28680,28920,29040,29040,29160,29280,29400,29460,29520,29580,29760,29760,29820,29880,29940,30120,30240,30600,30600,30660,30780,30960,31140,31320,31440,31500,31560,31620,31680,31800,31800,31860,31920,31980,32100,32220,32280,32340,32520,32580,32760,32940,33300,33480,33600,33780,33840,34020,34140,34140,34260,34380,34440,34500,34560,34560,34740,34800,34860,34860,34920,34980,35100,35700,35700,35760,35820,35880,35940,36060,36120,36180,36240,36300,36300,36420,36480,36540,36600,36660,36720,36840,36840,36900,37020,37080,37200,37380,59400,59640,59760,59940,60000,60240,60360,60420,60540,60660,60780,60780,60840,60900,61080,61140,61200,61260,61320,61500,61620,62100,62100,62160,62220,62280,62340,62520,62640,62700,62760,62820,62880,63000,63060,63120,63180,63300,63480,63600,63600,63660,63840,63960,64140,64320,64800,65040,65160,65280,65340,65580,65700,65760,65880,66000,66120,66120,66180,66240,66420,66480,66540,66600,66660,66840,66960,67200,67200,67260,67320,67380,67440,67620,67740,67800,67860,67920,67980,68100,68160,68220,68280,68400,68580,68700,68700,68760,68940,69060,69240,69420,69420,69420,69420,69420,69420,69420,69420,69420,69420,69420,69420,69420,69420,69420,69420,69420,69420,69420,69420,69420,69420,69420,69420,69420,69420,69420,69420,69420,69420,69420,69420,69420,69420,69420,69420,69420,69420,69420,69420,69420,69420,69420,69420,69420,69420,69420,69420,69420,69420,69420,69420,69420,69420,69420,69420,69420,69420,69420,69420,69420,69420,69420,69420,69420,69420,69420,69420,69420,69420,69420,69420,69420,69420,69420,69420,69420,69420,69420,69420,69420,69420,69420,69420,69420,69420,69420,69420,69420,69420,69420,69420,69420,69420,69420,69420,69420,69420,69420,69420,69420,69420,69420,69420,69420,69420,69420,69420,69420,69420,69420,69420,69420,69420,69420,69420,69420,69420,69420,69420,69420,69420,69420,69420,69420,69420,69420,69420,69420,69420,69420,69420,69420,69420,69420,69420,69420,69420,69420,69420,69420,69420,69420,69420,69420,69420,69420,69420,69420,69420,69420,69420,69420,69420,69420,69420,69420,69420,69420,69420,69420,69420,69420,69420,69420,69420,69420,69420,69420,69420,69420,69420,69420,69420,69420,69420,69420,69420,69420,69420,69420,69420,69420,69420,69420,69420,69420,69420,69420,69420,69420,69420,69420,69420,69420,69420,69420,69420,69420,69420,69420,69420,69420,69420,69420,69420,69420,69420,69420,69420,69420,69420,69420,69420,69420,69420,69420,69420,69420,69420,69420,69420,69420,69420,69420,69420,69420,69420,69420,69420,69420,69420,69420,69420,69420,69420,69420,69420,69420,69420,69420,69420,69420,69420,69420,69420,69420,69420,69420,69420,69420,69420,69420,69420,69420,69420,69420,69420,69420,69420,69420,69420,69420,69420,69420,69420,69420,69420,69420,69420,69420,69420,69420,69420,69420,69420,69420,69420,69420,69420,69420,69420,69420,69420,69420,69420,69420,69420,69420,69420,69420,69420,69420,69420,69420,69420,69420,69420,69420,69420,69420,69420,69420,69420,69420,69420,69420,69420,69420,69420,69420,69420,69420,69420,69420,69420,69420,69420,69420,69420,69420,69420,69420,69420,69420,69420,69420,69420,69420,69420,69420,69420,69420,69420,69420,69420,69420,69420,69420,69420,69420,69420,69420,69420,69420,69420,69420,69420,69420,69420,69420,69420,69420,69420,69420,69420,69420,69420,69420,69420,69420,69420,69420,69420,69420,69420,69420,69420,69420,69420,69420,69420,69420,69420,69420,69420,69420,69420,69420,69420,69420,69420,69420,69420,69420,69420,69420,69420,69420,69420,69420,69420,69420,69420,69420,69420,69420,69420,69420,69420,69420,69420,69420,69420,69420,69420,69420,69420,69420,69420,69420,69420,69420,69420,69420,69420,69420,69420,69420,69420,69420,69420,69420,69420,69420,69420,69420,69420,69420,69420,69420,69420,69420,69420,69420,69420,69420,69420,69420,69420,69420,69420,69420,69420,69420,69420,69420,69420,69420,69420,69420,69420,69420,69420,69420,69420,69420,69420,69420,69420,69420,69420,69420,69420,69420,69420,69420,69420,69420,69420,69420,69420,69420,69420,69420,69420,69420,69420,69420,69420,69420,69420,69420,69420,69420,69420,69420,69420,69420,69420  % Bus 16
]);
